#  HZ   S   MA   R     50.00 
! Rohde & Schwarz Vector Network Analyzer 
! Rohde-Schwarz,ZNB20-2Port,1311601062102213,3.30
! Created: UTC 2/27/2026, 9:30:31 AM
! freq[Hz]                mag:S11                 ang:S11                 mag:S21                 ang:S21                 mag:S12                 ang:S12                 mag:S22                 ang:S22
 1.000000000000000E9     1.726689937920361E-1   -3.124663260341270E1     9.616656274796490E-1   -1.237673268448208E2     9.613103411451879E-1   -1.244741316040818E2     1.625346624309188E-1   -3.228395663370866E1
 1.001250000000000E9     1.728098976162350E-1   -3.135696850831915E1     9.616144243979544E-1   -1.239163126276583E2     9.616625064510722E-1   -1.246263762249637E2     1.626876487126988E-1   -3.226633207310829E1
 1.002500000000000E9     1.731390946562922E-1   -3.149515617512184E1     9.611980708933435E-1   -1.240801351706418E2     9.614584704450052E-1   -1.247822722109577E2     1.629206194690154E-1   -3.240672094960137E1
 1.003750000000000E9     1.729439282483032E-1   -3.172903363278655E1     9.615237876366785E-1   -1.242443379615940E2     9.615690038863871E-1   -1.249439288845022E2     1.634363255571078E-1   -3.253496927978257E1
 1.005000000000000E9     1.732092484701547E-1   -3.196686921951849E1     9.614129917627061E-1   -1.243923606853681E2     9.616755295440266E-1   -1.250867565102766E2     1.633695533035456E-1   -3.263405079921635E1
 1.006250000000000E9     1.733285356345892E-1   -3.211793221254198E1     9.615740129046588E-1   -1.245583613610790E2     9.618583554345189E-1   -1.252516657880902E2     1.633877409975655E-1   -3.261009511139515E1
 1.007500000000000E9     1.735416207496668E-1   -3.236358423532947E1     9.616898955214001E-1   -1.247149290647173E2     9.621461224318686E-1   -1.254052520732641E2     1.638455222113511E-1   -3.265242318666028E1
 1.008750000000000E9     1.735607731287803E-1   -3.256981481169606E1     9.614832547273803E-1   -1.248667426583718E2     9.623766559962766E-1   -1.255586368805305E2     1.639807454538139E-1   -3.279005964680977E1
 1.010000000000000E9     1.733762631105783E-1   -3.273250357507236E1     9.614105262398296E-1   -1.250252219453883E2     9.625651361653568E-1   -1.256937662316980E2     1.641237608010988E-1   -3.295551546021075E1
 1.011250000000000E9     1.736585779575364E-1   -3.283025669417606E1     9.615085504043935E-1   -1.251981444304235E2     9.629083969348498E-1   -1.258615683566636E2     1.646635462474285E-1   -3.281068205975400E1
 1.012500000000000E9     1.740285575507375E-1   -3.298600725374819E1     9.615444706007110E-1   -1.253486328870673E2     9.637813464664675E-1   -1.259608549967279E2     1.651932992937727E-1   -3.249647555869559E1
 1.013750000000000E9     1.740306283309823E-1   -3.325327697654779E1     9.614413202376894E-1   -1.255053081539322E2     9.646816303296341E-1   -1.260939460553884E2     1.655408426195066E-1   -3.247145225470684E1
 1.015000000000000E9     1.741313046797481E-1   -3.330994966307546E1     9.615730820241307E-1   -1.256819212013460E2     9.649582385794199E-1   -1.262620339409136E2     1.657797740219726E-1   -3.239272856505023E1
 1.016250000000000E9     1.743356014320436E-1   -3.344180247073572E1     9.615597054301970E-1   -1.258333221689625E2     9.666895640686928E-1   -1.262270033696056E2     1.655540335895623E-1   -3.123706977919660E1
 1.017500000000000E9     1.743315375386629E-1   -3.365642315692622E1     9.616633362966798E-1   -1.259953933026243E2     9.661413397774106E-1   -1.264385010570820E2     1.659203380656869E-1   -3.164426477239732E1
 1.018750000000000E9     1.743987500993564E-1   -3.390214050678318E1     9.615101127877983E-1   -1.261478029052562E2     9.664896931364911E-1   -1.265512792090693E2     1.654530973661286E-1   -3.158944561670925E1
 1.020000000000000E9     1.747964316899910E-1   -3.400904076841041E1     9.616203284637027E-1   -1.263094839067313E2     9.669637934259830E-1   -1.266204076390062E2     1.651113906646412E-1   -3.115913313316450E1
 1.021250000000000E9     1.747677450024059E-1   -3.425103980780506E1     9.619287207018626E-1   -1.264871713458975E2     9.668049317342913E-1   -1.266938260158720E2     1.641891877048219E-1   -3.078532793740135E1
 1.022500000000000E9     1.751309236566177E-1   -3.444105679410933E1     9.619880444635781E-1   -1.266455252892427E2     9.667545662292387E-1   -1.268684889569974E2     1.650540971092620E-1   -3.116482391073495E1
 1.023750000000000E9     1.749810365660505E-1   -3.464829420257804E1     9.617083632556953E-1   -1.268014686171920E2     9.668012510590336E-1   -1.270770655583601E2     1.654651469205007E-1   -3.156463753340772E1
 1.025000000000000E9     1.752106783077150E-1   -3.492616895769003E1     9.622233670605060E-1   -1.269722791626121E2     9.666995493863532E-1   -1.272303321464762E2     1.655082151591839E-1   -3.161945957683822E1
 1.026250000000000E9     1.752808087133135E-1   -3.524330547784152E1     9.622663975262892E-1   -1.271295467954519E2     9.668481615294395E-1   -1.273689872557238E2     1.651799690911527E-1   -3.166664168099771E1
 1.027500000000000E9     1.757071745496591E-1   -3.572494613166238E1     9.630821590606532E-1   -1.273318762604369E2     9.667647959802622E-1   -1.275713324256003E2     1.657776882096449E-1   -3.216644839784382E1
 1.028750000000000E9     1.753971277419812E-1   -3.627977199634134E1     9.636064879802676E-1   -1.275082268067547E2     9.666683935260214E-1   -1.277578655122004E2     1.662190415540288E-1   -3.243951092211429E1
 1.030000000000000E9     1.756559521622942E-1   -3.670516688104646E1     9.639389950746733E-1   -1.277251865762596E2     9.666219624846997E-1   -1.278988902807373E2     1.661903615868151E-1   -3.248012813803523E1
 1.031250000000000E9     1.753280565992564E-1   -3.723503049598340E1     9.644912813103801E-1   -1.279333087410554E2     9.667693308091059E-1   -1.279709187334251E2     1.654417881634329E-1   -3.226228386278196E1
 1.032500000000000E9     1.746886675421520E-1   -3.771451223258189E1     9.646393645192881E-1   -1.281597494091848E2     9.668294593586745E-1   -1.281696522123619E2     1.663015481837530E-1   -3.255577948724923E1
 1.033750000000000E9     1.733832110001254E-1   -3.835324727205323E1     9.647955458085857E-1   -1.283970898489136E2     9.667119234012831E-1   -1.283685780568805E2     1.663917740607700E-1   -3.303482475199916E1
 1.035000000000000E9     1.726546071359384E-1   -3.876037968561153E1     9.649236198061496E-1   -1.286311110211123E2     9.667356716525410E-1   -1.284331982460860E2     1.658604618114468E-1   -3.265597415969551E1
 1.036250000000000E9     1.707350973971805E-1   -3.921640492114112E1     9.637234694748079E-1   -1.288918163378126E2     9.667851428662404E-1   -1.285970398396364E2     1.662982134717631E-1   -3.275200436075403E1
 1.037500000000000E9     1.692195791673995E-1   -3.937201254707466E1     9.629583049361590E-1   -1.291189148623838E2     9.667678984626312E-1   -1.288106710068767E2     1.666323285533467E-1   -3.320667971092374E1
 1.038750000000000E9     1.684847955809359E-1   -3.962737014808846E1     9.621914352724832E-1   -1.293070265761389E2     9.663648502719780E-1   -1.290877725199083E2     1.671622201712466E-1   -3.416525855244141E1
 1.040000000000000E9     1.679174410121632E-1   -3.978680711209879E1     9.617209452201785E-1   -1.294786197450804E2     9.653082154540845E-1   -1.293227935287250E2     1.675379685143699E-1   -3.491291275681324E1
 1.041250000000000E9     1.672375572014576E-1   -3.975634370847415E1     9.610314565082027E-1   -1.296600736782025E2     9.649653518867023E-1   -1.295138521774374E2     1.672166199357220E-1   -3.521087863544781E1
 1.042500000000000E9     1.671268816639795E-1   -3.990260300447911E1     9.608856355143280E-1   -1.298296074046797E2     9.652427076550595E-1   -1.296446239972720E2     1.674177492618227E-1   -3.515960423577392E1
 1.043750000000000E9     1.668160963918020E-1   -4.008963948375352E1     9.606459562115710E-1   -1.299807812513231E2     9.650957939577725E-1   -1.298131243925962E2     1.672839866986531E-1   -3.552456821652482E1
 1.045000000000000E9     1.664102374241095E-1   -4.016539812069818E1     9.603421074332574E-1   -1.301436448622614E2     9.651570532287671E-1   -1.299654918921071E2     1.676804345467618E-1   -3.560888025293928E1
 1.046250000000000E9     1.664649919715799E-1   -4.032632762395113E1     9.601377685155588E-1   -1.303078160175954E2     9.647905770103368E-1   -1.301677395732022E2     1.679090979811078E-1   -3.589041996901760E1
 1.047500000000000E9     1.664174678893106E-1   -4.046478728251347E1     9.599916795235481E-1   -1.304763039027666E2     9.650987325031074E-1   -1.302907912823451E2     1.675318916095046E-1   -3.613134701911312E1
 1.048750000000000E9     1.663769270559078E-1   -4.063648989236115E1     9.595859565447533E-1   -1.306390962250359E2     9.648275062293163E-1   -1.304663043584486E2     1.680277297426790E-1   -3.617052584968260E1
 1.050000000000000E9     1.664883951703618E-1   -4.081666693324123E1     9.596984665512919E-1   -1.307898167090033E2     9.642601163142689E-1   -1.306554684902726E2     1.678054621440548E-1   -3.662249876581082E1
 1.051250000000000E9     1.663264290026416E-1   -4.091310260767609E1     9.593690402330433E-1   -1.309462638368771E2     9.641680580194972E-1   -1.308170182952607E2     1.675262781243761E-1   -3.691983471428732E1
 1.052500000000000E9     1.660639739391805E-1   -4.106074437438229E1     9.596105296412265E-1   -1.311049314437460E2     9.636462635300170E-1   -1.309967689946953E2     1.677100621072161E-1   -3.730253492367485E1
 1.053750000000000E9     1.663497710860067E-1   -4.117672743503314E1     9.593896763269922E-1   -1.312729199943252E2     9.634285524688125E-1   -1.311570703512012E2     1.675334241389436E-1   -3.755138911639983E1
 1.055000000000000E9     1.661445956058513E-1   -4.137015513024892E1     9.593876274096848E-1   -1.314491261478287E2     9.631523556470541E-1   -1.313477862398615E2     1.672026288901784E-1   -3.779107643646250E1
 1.056250000000000E9     1.660331910745322E-1   -4.151494511899313E1     9.594661707363430E-1   -1.315918513937663E2     9.623022535033223E-1   -1.315273767346453E2     1.668488700476708E-1   -3.819728102893819E1
 1.057500000000000E9     1.660070572483393E-1   -4.163509085123479E1     9.588463782888820E-1   -1.317600432388952E2     9.623167514536344E-1   -1.317095709784358E2     1.669073243055562E-1   -3.842129144785724E1
 1.058750000000000E9     1.661882543733528E-1   -4.178568892337726E1     9.592314707466154E-1   -1.319102836499191E2     9.616051347005840E-1   -1.318661961290032E2     1.670963547610464E-1   -3.869580299889427E1
 1.060000000000000E9     1.661624121874758E-1   -4.188426491788856E1     9.590478133701532E-1   -1.320748297358807E2     9.616476821273712E-1   -1.320169575059988E2     1.670142094488007E-1   -3.887172438331647E1
 1.061250000000000E9     1.663499873251103E-1   -4.208682187669853E1     9.588815869134885E-1   -1.322137369808219E2     9.613751983131034E-1   -1.321729683374603E2     1.666124621341725E-1   -3.899449671285131E1
 1.062500000000000E9     1.662204386414390E-1   -4.227590672095784E1     9.591852348794359E-1   -1.323851783181301E2     9.612456172918896E-1   -1.323422682928759E2     1.663344168845728E-1   -3.930522918941428E1
 1.063750000000000E9     1.663417983432046E-1   -4.238239666299392E1     9.588207494174277E-1   -1.325519559015897E2     9.609692994352748E-1   -1.325239646112647E2     1.667059760524331E-1   -3.942443681844252E1
 1.065000000000000E9     1.663065715919607E-1   -4.251353033873842E1     9.587220784019895E-1   -1.327094926818864E2     9.607906724197187E-1   -1.326620881089162E2     1.664311543114436E-1   -3.969023679817244E1
 1.066250000000000E9     1.658868539657264E-1   -4.274527094105948E1     9.589266324773155E-1   -1.328715234131810E2     9.607000227411434E-1   -1.328380796702399E2     1.665459854276430E-1   -3.978430426205897E1
 1.067500000000000E9     1.662583473887141E-1   -4.286440725481435E1     9.585645854406886E-1   -1.330412432312398E2     9.604886925628164E-1   -1.329897967439615E2     1.667559293295400E-1   -3.987757505788966E1
 1.068750000000000E9     1.661967777783034E-1   -4.300741844326938E1     9.587094282763373E-1   -1.331936928946216E2     9.606708167205831E-1   -1.331491754576543E2     1.671396906678327E-1   -4.005097199034456E1
 1.070000000000000E9     1.662091001870155E-1   -4.319433539309482E1     9.585634497401709E-1   -1.333563047669554E2     9.607079300758703E-1   -1.333120986870278E2     1.666608026417208E-1   -4.033167289676370E1
 1.071250000000000E9     1.663147354773440E-1   -4.327304389577668E1     9.584543842746543E-1   -1.335155072225451E2     9.603980436582430E-1   -1.334740333429657E2     1.666969441227402E-1   -4.030000758887098E1
 1.072500000000000E9     1.663798841780980E-1   -4.353153863610314E1     9.584188725988170E-1   -1.336593712761780E2     9.603513917749166E-1   -1.336437881568599E2     1.665766825824478E-1   -4.072356091544069E1
 1.073750000000000E9     1.664382880185677E-1   -4.355618416824090E1     9.583806747772349E-1   -1.338355196007267E2     9.601311316272457E-1   -1.337897572205595E2     1.667792287833639E-1   -4.078285007963304E1
 1.075000000000000E9     1.662999406653010E-1   -4.382634194968535E1     9.584476494140896E-1   -1.339939466796419E2     9.600133946325946E-1   -1.339578086663651E2     1.668809170248049E-1   -4.097985925856907E1
 1.076250000000000E9     1.666598799101233E-1   -4.393004973898943E1     9.582023960611382E-1   -1.341535542708927E2     9.601224717424043E-1   -1.341158063806552E2     1.666789236924268E-1   -4.102875581101607E1
 1.077500000000000E9     1.665453427748870E-1   -4.415696801152887E1     9.583146645428053E-1   -1.343060608082212E2     9.599499290557324E-1   -1.342737159461135E2     1.668120839410844E-1   -4.129087557624495E1
 1.078750000000000E9     1.664375531246673E-1   -4.423314153295310E1     9.581468166885918E-1   -1.344653287218968E2     9.597989803925273E-1   -1.344473250901449E2     1.668157365580465E-1   -4.146102023143685E1
 1.080000000000000E9     1.666149254491506E-1   -4.439068242845131E1     9.581695058191594E-1   -1.346384142921379E2     9.598521062241108E-1   -1.345869157026061E2     1.668344447791904E-1   -4.151042215672622E1
 1.081250000000000E9     1.667351724570598E-1   -4.464440167237829E1     9.578580223853201E-1   -1.347803544419504E2     9.597914116957946E-1   -1.347715776972948E2     1.670808745858517E-1   -4.171276455664110E1
 1.082500000000000E9     1.665382231783712E-1   -4.470323990287343E1     9.580467218303425E-1   -1.349559812801196E2     9.595609876821179E-1   -1.349261421528623E2     1.669932988987534E-1   -4.190223823044399E1
 1.083750000000000E9     1.666414224590332E-1   -4.501877164910425E1     9.577784959448062E-1   -1.350843047142425E2     9.595727594665183E-1   -1.350684306362845E2     1.671532571094231E-1   -4.206977473014157E1
 1.085000000000000E9     1.669821926655992E-1   -4.505256313080820E1     9.578207201102032E-1   -1.352650397802475E2     9.593256817534441E-1   -1.352261774581344E2     1.667564183905704E-1   -4.226670030947582E1
 1.086250000000000E9     1.667727978136029E-1   -4.525356129613362E1     9.578378108939906E-1   -1.354244022958713E2     9.596306882988015E-1   -1.353948516592495E2     1.668117149915150E-1   -4.245822646838002E1
 1.087500000000000E9     1.665130664945800E-1   -4.548920550874616E1     9.575497992682166E-1   -1.355832562249471E2     9.593209409909934E-1   -1.355413496270658E2     1.668879079165299E-1   -4.263411187142900E1
 1.088750000000000E9     1.670069845296895E-1   -4.546225327977536E1     9.578151870272266E-1   -1.357352357848336E2     9.591299969234433E-1   -1.357047658130068E2     1.668908978683079E-1   -4.276094775696393E1
 1.090000000000000E9     1.667534236432640E-1   -4.574190095062010E1     9.574016613869509E-1   -1.358880341607768E2     9.591119413726277E-1   -1.358660363925970E2     1.671741004603808E-1   -4.291303045351282E1
 1.091250000000000E9     1.667246112526028E-1   -4.589787484543674E1     9.572729920393843E-1   -1.360600870621982E2     9.588027415866337E-1   -1.360447834601023E2     1.667472571736393E-1   -4.310805924702629E1
 1.092500000000000E9     1.668083542651363E-1   -4.604995844018514E1     9.574807201762049E-1   -1.361982456576769E2     9.590385456177680E-1   -1.361942453370241E2     1.669028569400658E-1   -4.326820569587388E1
 1.093750000000000E9     1.667542623357004E-1   -4.624247292649422E1     9.573602234090133E-1   -1.363738713307118E2     9.588129377555442E-1   -1.363555788876123E2     1.667480905440635E-1   -4.336549980502991E1
 1.095000000000000E9     1.669163361244578E-1   -4.639257457277112E1     9.570733051684770E-1   -1.365258774273289E2     9.586740870196656E-1   -1.365169051063519E2     1.667832862193211E-1   -4.350422230813991E1
 1.096250000000000E9     1.667867914262601E-1   -4.652084600032336E1     9.573105726747864E-1   -1.366704735167662E2     9.585493694697705E-1   -1.366747936754926E2     1.667829195527568E-1   -4.367773300032156E1
 1.097500000000000E9     1.669922962101457E-1   -4.672128993883651E1     9.571888884878744E-1   -1.368574970293407E2     9.586964093283299E-1   -1.368410030466999E2     1.671039752087732E-1   -4.376832996821680E1
 1.098750000000000E9     1.670302017906098E-1   -4.691772501533522E1     9.572044526266899E-1   -1.370011747542524E2     9.585564033225971E-1   -1.369891957404038E2     1.670159473862888E-1   -4.397727606150139E1
 1.100000000000000E9     1.666792576983547E-1   -4.695246699863173E1     9.569378868841756E-1   -1.371719151921336E2     9.587082326968116E-1   -1.371462660304454E2     1.670446508088465E-1   -4.414466147952475E1
 1.101250000000000E9     1.670228929651187E-1   -4.718440360551848E1     9.569275107222740E-1   -1.373310336992742E2     9.583742829995575E-1   -1.372936871836216E2     1.670622515642598E-1   -4.436883809327168E1
 1.102500000000000E9     1.669805337915016E-1   -4.735230136921638E1     9.564966607383391E-1   -1.374741753288859E2     9.582645188326040E-1   -1.374697620701870E2     1.667246924467659E-1   -4.447887446000598E1
 1.103750000000000E9     1.671172817491425E-1   -4.752007586999277E1     9.566409317973789E-1   -1.376414980845661E2     9.583292542660282E-1   -1.376230279698957E2     1.672327731642373E-1   -4.466505480451637E1
 1.105000000000000E9     1.666433173041227E-1   -4.781917905962500E1     9.568691812523334E-1   -1.378185825193410E2     9.581539519028541E-1   -1.377881399241204E2     1.669387897823836E-1   -4.471625673609216E1
 1.106250000000000E9     1.669936226483219E-1   -4.781967396764712E1     9.566676616712882E-1   -1.379597398113061E2     9.581220358670971E-1   -1.379370947837358E2     1.670887744606907E-1   -4.488705317734220E1
 1.107500000000000E9     1.671889253277173E-1   -4.796604578617410E1     9.565835423814455E-1   -1.381299130086565E2     9.579861863508282E-1   -1.380993230346472E2     1.669159636484916E-1   -4.505599430156423E1
 1.108750000000000E9     1.673000673317468E-1   -4.814731448603909E1     9.566709495984697E-1   -1.382851031815890E2     9.578524805996120E-1   -1.382656026221438E2     1.670123729316416E-1   -4.515574905548537E1
 1.110000000000000E9     1.673360061217812E-1   -4.836018379044851E1     9.564879451009729E-1   -1.384343235404715E2     9.580144923702236E-1   -1.384202380570186E2     1.669471636237289E-1   -4.547137908980554E1
 1.111250000000000E9     1.671546868742123E-1   -4.847256094807543E1     9.564585093088676E-1   -1.386111530821620E2     9.579603404681933E-1   -1.385765426267816E2     1.668368916839615E-1   -4.554920389582266E1
 1.112500000000000E9     1.670493630860925E-1   -4.872282620518014E1     9.563411932166760E-1   -1.387513700877378E2     9.581556805167010E-1   -1.387293205236911E2     1.671724090537249E-1   -4.567634064622888E1
 1.113750000000000E9     1.670966211590679E-1   -4.884104131217813E1     9.567068496284856E-1   -1.389182332194685E2     9.578369121563716E-1   -1.388932195826381E2     1.669594620992778E-1   -4.578123137854208E1
 1.115000000000000E9     1.671628072015473E-1   -4.905861514707241E1     9.565631459413989E-1   -1.390796693475038E2     9.579502433271236E-1   -1.390595151117298E2     1.671580737202099E-1   -4.592757016723561E1
 1.116250000000000E9     1.671162814181941E-1   -4.923058662207940E1     9.566204414459432E-1   -1.392287356162679E2     9.578132393656735E-1   -1.391967493361226E2     1.670519875421874E-1   -4.611446307723662E1
 1.117500000000000E9     1.672315028329263E-1   -4.936435539817163E1     9.561716293224968E-1   -1.394063198568266E2     9.576670800268883E-1   -1.393803395279151E2     1.670382915972857E-1   -4.633255150466260E1
 1.118750000000000E9     1.671787328212240E-1   -4.955610618652443E1     9.562286421231876E-1   -1.395519433962611E2     9.578306217263719E-1   -1.395360077563019E2     1.670829921763329E-1   -4.641972130608366E1
 1.120000000000000E9     1.669801076289421E-1   -4.971951922219905E1     9.563312581730040E-1   -1.397052335387799E2     9.577450149995479E-1   -1.396894981464497E2     1.671402174744548E-1   -4.655409298196840E1
 1.121250000000000E9     1.671678979112242E-1   -4.994163133117600E1     9.562645899157668E-1   -1.398824681430295E2     9.575639666462380E-1   -1.398402157431933E2     1.668419345145467E-1   -4.663881489771851E1
 1.122500000000000E9     1.671492473789929E-1   -5.004358023556770E1     9.560963657926888E-1   -1.400245673334583E2     9.576838488400976E-1   -1.400107677936870E2     1.671968483381476E-1   -4.693919285490228E1
 1.123750000000000E9     1.672542752601926E-1   -5.024145131217328E1     9.562039408752034E-1   -1.401830909738985E2     9.575289730927450E-1   -1.401653486786061E2     1.672871046446126E-1   -4.705074455354948E1
 1.125000000000000E9     1.668299840002329E-1   -5.034887604793940E1     9.558314196373703E-1   -1.403469197615626E2     9.574807367173942E-1   -1.403408237627860E2     1.669305734702363E-1   -4.718465536547841E1
 1.126250000000000E9     1.672746430887088E-1   -5.051307547092962E1     9.559660764419315E-1   -1.405128004812423E2     9.573319769976055E-1   -1.404965237964602E2     1.672241669636269E-1   -4.729654002140962E1
 1.127500000000000E9     1.669749025169592E-1   -5.071418624602622E1     9.559229064750607E-1   -1.406658680397809E2     9.572910179580594E-1   -1.406400853365468E2     1.670524548287286E-1   -4.744620841260470E1
 1.128750000000000E9     1.672159235971292E-1   -5.094282166204697E1     9.559455934804617E-1   -1.408213359297400E2     9.575300414298251E-1   -1.408137552626416E2     1.670114213766384E-1   -4.762769497739681E1
 1.130000000000000E9     1.670236449453525E-1   -5.110995789122794E1     9.557159664802659E-1   -1.409871970334839E2     9.573750387938894E-1   -1.409535169674329E2     1.671370406238509E-1   -4.771251394757044E1
 1.131250000000000E9     1.674884539478411E-1   -5.117733009926283E1     9.557727477332949E-1   -1.411487187937768E2     9.573211188995977E-1   -1.411241080194954E2     1.670565819839300E-1   -4.791541233677664E1
 1.132500000000000E9     1.674679909268943E-1   -5.134470560366895E1     9.554098745489956E-1   -1.412840822386861E2     9.575297632085888E-1   -1.412732217631269E2     1.672097255185156E-1   -4.810393119778310E1
 1.133750000000000E9     1.672768753734247E-1   -5.153874407355669E1     9.555370795329573E-1   -1.414646296120702E2     9.574649715290486E-1   -1.414271742290872E2     1.670542353925508E-1   -4.809086395961184E1
 1.135000000000000E9     1.674412555197061E-1   -5.178502720233058E1     9.555331841477132E-1   -1.416173857302445E2     9.573248529355595E-1   -1.415903636524307E2     1.670203681788144E-1   -4.833688715041092E1
 1.136250000000000E9     1.674897807446326E-1   -5.182214516704011E1     9.553577532382049E-1   -1.417859485615652E2     9.572462094511203E-1   -1.417557970583163E2     1.669401388125225E-1   -4.847257858883045E1
 1.137500000000000E9     1.673463687106441E-1   -5.203123388605619E1     9.552849196932064E-1   -1.419193138577258E2     9.574556809809035E-1   -1.419223348617983E2     1.670036681080916E-1   -4.858870084463108E1
 1.138750000000000E9     1.674118527113782E-1   -5.214216665039847E1     9.554559184826246E-1   -1.420889343437837E2     9.571048875727438E-1   -1.420808537253079E2     1.667672164840818E-1   -4.873833940255401E1
 1.140000000000000E9     1.673138338793536E-1   -5.231438673688530E1     9.552815533245534E-1   -1.422596222160854E2     9.572388698760849E-1   -1.422330468462908E2     1.669771823293973E-1   -4.892477855442083E1
 1.141250000000000E9     1.672989312850105E-1   -5.252247428486869E1     9.555224135985212E-1   -1.424111189401220E2     9.569311159694606E-1   -1.423897974381624E2     1.669835412467920E-1   -4.920507663195043E1
 1.142500000000000E9     1.676496903422935E-1   -5.260071627572373E1     9.554013795462908E-1   -1.425695500695086E2     9.568412479220521E-1   -1.425387321612824E2     1.670538540018787E-1   -4.934977442234548E1
 1.143750000000000E9     1.672280808169536E-1   -5.293984361679804E1     9.551180855147658E-1   -1.427445064063513E2     9.569225181194373E-1   -1.427125464315759E2     1.669349935076631E-1   -4.940000059086805E1
 1.145000000000000E9     1.671184733611008E-1   -5.304641607857985E1     9.553616025080163E-1   -1.428925494933142E2     9.570350518135717E-1   -1.428730468332599E2     1.669555906867127E-1   -4.959370169899162E1
 1.146250000000000E9     1.672496840954946E-1   -5.328182655842842E1     9.554484408208793E-1   -1.430552089150218E2     9.567912482651463E-1   -1.430236609527859E2     1.669962081663939E-1   -4.968736336329581E1
 1.147500000000000E9     1.672527315375971E-1   -5.330446735843043E1     9.550829905520143E-1   -1.432006260014319E2     9.568218212706231E-1   -1.431976320754681E2     1.667036451504577E-1   -4.987095240071704E1
 1.148750000000000E9     1.674507649420145E-1   -5.351883457007843E1     9.550764152930517E-1   -1.433685715127733E2     9.567117300137106E-1   -1.433359613328503E2     1.667850596719841E-1   -5.003595524230776E1
 1.150000000000000E9     1.672041890413928E-1   -5.368774659941533E1     9.550872085905290E-1   -1.435237120372331E2     9.565936504620253E-1   -1.435037474435497E2     1.668921732847934E-1   -5.016920685918411E1
 1.151250000000000E9     1.672873943317986E-1   -5.383163185863808E1     9.549784266432608E-1   -1.436888401999097E2     9.568993350047396E-1   -1.436646172777094E2     1.665831506345253E-1   -5.036909025047466E1
 1.152500000000000E9     1.673511399238301E-1   -5.400596311145897E1     9.550648180239241E-1   -1.438379391944060E2     9.568264291582450E-1   -1.438248104628478E2     1.665589957108650E-1   -5.045213221558221E1
 1.153750000000000E9     1.673845947017892E-1   -5.413645499170700E1     9.550652327960729E-1   -1.440019401848267E2     9.565001194025738E-1   -1.439807119669084E2     1.668093788060664E-1   -5.066429073970300E1
 1.155000000000000E9     1.672686205025815E-1   -5.427989811559405E1     9.552464865399105E-1   -1.441696774205373E2     9.566649460472291E-1   -1.441413773202860E2     1.665701621870164E-1   -5.081857079491343E1
 1.156250000000000E9     1.670752683890827E-1   -5.453767255686894E1     9.547984463073727E-1   -1.443204305614180E2     9.568004869732861E-1   -1.443034042794233E2     1.666334756236404E-1   -5.094069236314355E1
 1.157500000000000E9     1.668891839082135E-1   -5.475641425639906E1     9.549918460929105E-1   -1.444713249947597E2     9.564216184668408E-1   -1.444707530416298E2     1.667735062154767E-1   -5.112870773497445E1
 1.158750000000000E9     1.673191383843456E-1   -5.485902216672153E1     9.548687179750089E-1   -1.446503750789231E2     9.566396729812280E-1   -1.446140902277571E2     1.663897034199923E-1   -5.131762411384678E1
 1.160000000000000E9     1.670739059564295E-1   -5.489810772710442E1     9.551754831018342E-1   -1.448136376263995E2     9.564624424708119E-1   -1.447919547619444E2     1.663676385657245E-1   -5.145214197478844E1
 1.161250000000000E9     1.670884317332280E-1   -5.521567170235667E1     9.547205020178707E-1   -1.449593438844683E2     9.564813286409146E-1   -1.449416996217017E2     1.663501265106407E-1   -5.155104927700458E1
 1.162500000000000E9     1.668383508728372E-1   -5.540442118633016E1     9.547323343065732E-1   -1.451200998618128E2     9.564862106555077E-1   -1.451054505836687E2     1.663035102307646E-1   -5.175364135237508E1
 1.163750000000000E9     1.671375641205934E-1   -5.541244194419370E1     9.549674761781848E-1   -1.452921590075471E2     9.565369623068576E-1   -1.452732266498742E2     1.664268370284613E-1   -5.188345346015016E1
 1.165000000000000E9     1.671460123498167E-1   -5.554014232661197E1     9.549719174897195E-1   -1.454356493706764E2     9.562841880187851E-1   -1.454205997953090E2     1.663348558216285E-1   -5.205486392619793E1
 1.166250000000000E9     1.668110732814585E-1   -5.578697914415638E1     9.547505369275631E-1   -1.456160224353822E2     9.563921523064915E-1   -1.456041582145622E2     1.662664845984372E-1   -5.222755722716604E1
 1.167500000000000E9     1.669824588428242E-1   -5.593641451178502E1     9.548787844941327E-1   -1.457564054902117E2     9.564352443979205E-1   -1.457677832924679E2     1.664122188645087E-1   -5.250773922728494E1
 1.168750000000000E9     1.669740700429678E-1   -5.605614290307137E1     9.549315484592250E-1   -1.459288513263420E2     9.564722007243510E-1   -1.459423790321969E2     1.662546300167535E-1   -5.269219631815458E1
 1.170000000000000E9     1.669151149277384E-1   -5.616205971786395E1     9.546637658313190E-1   -1.460853511838457E2     9.562088721731411E-1   -1.461162772543296E2     1.664478747965866E-1   -5.288651949891599E1
 1.171250000000000E9     1.671854193939893E-1   -5.646137832584571E1     9.545494785424401E-1   -1.462441484552016E2     9.560731099092300E-1   -1.462831154247316E2     1.664198243577512E-1   -5.313281048862649E1
 1.172500000000000E9     1.669349987356885E-1   -5.657042296278954E1     9.545592624904973E-1   -1.463961565606596E2     9.557755520759826E-1   -1.464625356141669E2     1.662878551666714E-1   -5.336028189311771E1
 1.173750000000000E9     1.667099007690606E-1   -5.674064871004610E1     9.549082946050488E-1   -1.465683153273304E2     9.555336734423053E-1   -1.466220175578460E2     1.661671210752287E-1   -5.373545401435393E1
 1.175000000000000E9     1.670972012811258E-1   -5.683589664380110E1     9.547044600807915E-1   -1.467233030465663E2     9.556006052247111E-1   -1.468091606561443E2     1.659802722681972E-1   -5.386771514663194E1
 1.176250000000000E9     1.667659620394544E-1   -5.710479806807640E1     9.544642902953575E-1   -1.468815717281858E2     9.551762002704411E-1   -1.469794925916393E2     1.659976109098015E-1   -5.412931381555587E1
 1.177500000000000E9     1.667573024477756E-1   -5.714955701256785E1     9.546965221000479E-1   -1.470443810031327E2     9.551412020919278E-1   -1.471321518632575E2     1.658430414457162E-1   -5.429573393111506E1
 1.178750000000000E9     1.669316768076024E-1   -5.730643835321649E1     9.548113498178997E-1   -1.472090800816429E2     9.547926336007891E-1   -1.473052537096900E2     1.657455687599125E-1   -5.451527105149322E1
 1.180000000000000E9     1.670187558226334E-1   -5.758162530311782E1     9.547962017687980E-1   -1.473582784125088E2     9.549490961420186E-1   -1.474459394406015E2     1.656991720252437E-1   -5.466510121980009E1
 1.181250000000000E9     1.667605186877439E-1   -5.765059486122815E1     9.544035554092788E-1   -1.475294380088650E2     9.549234459482714E-1   -1.476079609645417E2     1.656234397418088E-1   -5.489813676455013E1
 1.182500000000000E9     1.669242322945175E-1   -5.778638210847601E1     9.545478106778852E-1   -1.476781713054496E2     9.548216443258811E-1   -1.477863277542649E2     1.655752665934748E-1   -5.500525701302328E1
 1.183750000000000E9     1.672114183484563E-1   -5.803339133015660E1     9.545644261140129E-1   -1.478480476291908E2     9.543929605042837E-1   -1.479527514308105E2     1.656482148519898E-1   -5.513211761530815E1
 1.185000000000000E9     1.670604966464315E-1   -5.822656895083225E1     9.546801292062332E-1   -1.480186216355198E2     9.546227177488720E-1   -1.480979619917745E2     1.654273542792236E-1   -5.536142292439446E1
 1.186250000000000E9     1.667026852203510E-1   -5.828697119423899E1     9.544354092432161E-1   -1.481810735630541E2     9.542536343855976E-1   -1.482683977228269E2     1.653289714002917E-1   -5.549035187375159E1
 1.187500000000000E9     1.669766569404423E-1   -5.845357731515218E1     9.543217051055494E-1   -1.483331393563768E2     9.542260610694299E-1   -1.484278621821166E2     1.654371839067616E-1   -5.559275293353544E1
 1.188750000000000E9     1.669250088423854E-1   -5.857777185091116E1     9.541994419446966E-1   -1.484953332596015E2     9.545399423677894E-1   -1.485862735469742E2     1.650867531055464E-1   -5.576122569286770E1
 1.190000000000000E9     1.667209199287829E-1   -5.878437581296432E1     9.542415667684783E-1   -1.486566217470998E2     9.545324873938704E-1   -1.487610690736084E2     1.651268137502566E-1   -5.591050450346024E1
 1.191250000000000E9     1.665529809144892E-1   -5.894998821480698E1     9.543383901902579E-1   -1.488251379743976E2     9.543060502837869E-1   -1.489067629394748E2     1.652833591235005E-1   -5.611484678471493E1
 1.192500000000000E9     1.665800102840148E-1   -5.906504642195021E1     9.542225288340181E-1   -1.489858073993700E2     9.544069949588303E-1   -1.490610125098927E2     1.651604317680871E-1   -5.629183365510087E1
 1.193750000000000E9     1.668802295119859E-1   -5.930679966860084E1     9.541118904749519E-1   -1.491464238869151E2     9.543280108097888E-1   -1.492373706696478E2     1.653179159911492E-1   -5.635019777079804E1
 1.195000000000000E9     1.664874562525574E-1   -5.944946290912387E1     9.539321049270183E-1   -1.493036596626523E2     9.540108454558571E-1   -1.494013313807711E2     1.651365834874573E-1   -5.658813884236145E1
 1.196250000000000E9     1.667522412973114E-1   -5.957125199766341E1     9.542109318671704E-1   -1.494598528735708E2     9.538809142280157E-1   -1.495588204716201E2     1.652159793387900E-1   -5.669753893260906E1
 1.197500000000000E9     1.666172554550085E-1   -5.986629687142563E1     9.541070233881508E-1   -1.496348029574112E2     9.539165282603873E-1   -1.497168919457075E2     1.649278010455464E-1   -5.689497167830304E1
 1.198750000000000E9     1.667686621780786E-1   -5.987346440580023E1     9.539922417106707E-1   -1.497980723180533E2     9.539745633440816E-1   -1.498817265628279E2     1.651796898658590E-1   -5.699891604444875E1
 1.200000000000000E9     1.666427260587884E-1   -6.013984836239200E1     9.537474187071490E-1   -1.499561249735441E2     9.537379581084645E-1   -1.500391443461115E2     1.651292215053274E-1   -5.717049596922978E1
 1.201250000000000E9     1.664568280239650E-1   -6.020851658693759E1     9.541164603755132E-1   -1.501240618516441E2     9.539547701660455E-1   -1.501981250180026E2     1.650766686597315E-1   -5.723932173734284E1
 1.202500000000000E9     1.666054350200441E-1   -6.037698882513973E1     9.537663469751289E-1   -1.502790143058892E2     9.536956296895743E-1   -1.503616980622923E2     1.649180186079486E-1   -5.741025954512956E1
 1.203750000000000E9     1.662020918003893E-1   -6.059885282176043E1     9.537007025209672E-1   -1.504364066606851E2     9.537637700469990E-1   -1.505243246502037E2     1.651066054693320E-1   -5.761880764638301E1
 1.205000000000000E9     1.665411187029400E-1   -6.058063068287646E1     9.538185846089712E-1   -1.506105534310784E2     9.536461947138236E-1   -1.506987892465765E2     1.650938627816900E-1   -5.771617371908214E1
 1.206250000000000E9     1.665484765619302E-1   -6.081848778721142E1     9.537025049666873E-1   -1.507536675532766E2     9.535463106833552E-1   -1.508526699769261E2     1.647333505405337E-1   -5.783544530434858E1
 1.207500000000000E9     1.667626147307432E-1   -6.109960668484216E1     9.536210149097598E-1   -1.509219542530083E2     9.535682530495685E-1   -1.510062227723645E2     1.645961518168714E-1   -5.803906007704958E1
 1.208750000000000E9     1.659919234177386E-1   -6.118454059491551E1     9.541624080367299E-1   -1.511039004632907E2     9.534554733488100E-1   -1.511940014458625E2     1.649573793059180E-1   -5.814247628046132E1
 1.210000000000000E9     1.661622340028940E-1   -6.149882832604542E1     9.536560469539065E-1   -1.512652396133011E2     9.533561600434973E-1   -1.513427512746404E2     1.651295409035064E-1   -5.837558512054905E1
 1.211250000000000E9     1.661046179704797E-1   -6.161429441424941E1     9.538990157684727E-1   -1.514281292602656E2     9.533805066442436E-1   -1.514942919013731E2     1.647550866450286E-1   -5.856077923668615E1
 1.212500000000000E9     1.660462961165169E-1   -6.191553328150832E1     9.536684230822248E-1   -1.515836205667683E2     9.535409344634805E-1   -1.516597847601553E2     1.648900364840193E-1   -5.866010828058324E1
 1.213750000000000E9     1.658003343938902E-1   -6.209505255618661E1     9.537644983894555E-1   -1.517601674684224E2     9.534807519695410E-1   -1.518111756169467E2     1.647382445290288E-1   -5.881541947125833E1
 1.215000000000000E9     1.657418029359830E-1   -6.225081282956346E1     9.538590365295967E-1   -1.519258073270105E2     9.531949277463085E-1   -1.519950188769774E2     1.647202897396367E-1   -5.892034036425911E1
 1.216250000000000E9     1.660967578809391E-1   -6.238431017394016E1     9.536909274494247E-1   -1.520813908114491E2     9.534052875945253E-1   -1.521443974172618E2     1.648548461711419E-1   -5.908042917555745E1
 1.217500000000000E9     1.656049736533041E-1   -6.251338093572343E1     9.537487499499553E-1   -1.522543429965353E2     9.532079601094755E-1   -1.523111745501999E2     1.644229001678891E-1   -5.917534696437189E1
 1.218750000000000E9     1.657724668278000E-1   -6.268066182440833E1     9.533793549033295E-1   -1.524108096394974E2     9.532940709043004E-1   -1.524676721639199E2     1.645914019422579E-1   -5.935179671052661E1
 1.220000000000000E9     1.654634257426195E-1   -6.292209533455713E1     9.534786032020586E-1   -1.525786901656091E2     9.532665569103564E-1   -1.526404192550583E2     1.646960089192177E-1   -5.956444701162096E1
 1.221250000000000E9     1.653864394251896E-1   -6.313896169217422E1     9.536253085066160E-1   -1.527485577108459E2     9.530556807309963E-1   -1.527948229371579E2     1.644418171293895E-1   -5.976178991717953E1
 1.222500000000000E9     1.652962669679357E-1   -6.314530730421167E1     9.534091007204299E-1   -1.528982771364203E2     9.530040178629565E-1   -1.529538017984270E2     1.642776251176336E-1   -5.979017904833599E1
 1.223750000000000E9     1.652622486728464E-1   -6.338558507346808E1     9.535113367672583E-1   -1.530671118252503E2     9.532929825492000E-1   -1.531155477783699E2     1.644394964202751E-1   -5.994136584490827E1
 1.225000000000000E9     1.648949790017161E-1   -6.355267729447095E1     9.534355523643488E-1   -1.532299273605975E2     9.528974376126799E-1   -1.532717161361471E2     1.643609008577331E-1   -6.005144156182127E1
 1.226250000000000E9     1.651545568509693E-1   -6.367581392339123E1     9.531485446970227E-1   -1.533956851374202E2     9.530863112653939E-1   -1.534415423253085E2     1.641572169284753E-1   -6.022237861839437E1
 1.227500000000000E9     1.648547586778868E-1   -6.394552876830512E1     9.531765485365201E-1   -1.535718271345036E2     9.532284509048629E-1   -1.536034843659447E2     1.643717490044114E-1   -6.039600845455853E1
 1.228750000000000E9     1.650222471548508E-1   -6.404350297734754E1     9.532025443408415E-1   -1.537235490276929E2     9.530740179758810E-1   -1.537753209242992E2     1.642372021364530E-1   -6.045047320391266E1
 1.230000000000000E9     1.649900042536420E-1   -6.431560041309613E1     9.530439683116391E-1   -1.538771296450930E2     9.527854672641997E-1   -1.539232436049050E2     1.640784159122275E-1   -6.065675970096486E1
 1.231250000000000E9     1.649104980436831E-1   -6.429317905183299E1     9.532306718241782E-1   -1.540506932448047E2     9.527434703639710E-1   -1.540897046770050E2     1.641787024730729E-1   -6.085578137413833E1
 1.232500000000000E9     1.647794601857999E-1   -6.452865218672467E1     9.530092539148677E-1   -1.542006247550733E2     9.528030179198678E-1   -1.542466682464560E2     1.639868609337853E-1   -6.086513406002184E1
 1.233750000000000E9     1.647273262908443E-1   -6.473118580318044E1     9.530470591582659E-1   -1.543827565194804E2     9.527002575998953E-1   -1.544119666991779E2     1.642552010122845E-1   -6.105820144502437E1
 1.235000000000000E9     1.648997412556235E-1   -6.487777662414437E1     9.530383761630280E-1   -1.545387370058114E2     9.531053480245032E-1   -1.545807992303339E2     1.637975902786440E-1   -6.129643477912827E1
 1.236250000000000E9     1.645809772915779E-1   -6.516729063840083E1     9.527931781243093E-1   -1.547088733334181E2     9.526753224088390E-1   -1.547473351166938E2     1.640424023010611E-1   -6.139379706513067E1
 1.237500000000000E9     1.644926475240912E-1   -6.515575222126773E1     9.529565260456981E-1   -1.548747512817382E2     9.527016054618316E-1   -1.548874735569165E2     1.639041805760517E-1   -6.151958540067838E1
 1.238750000000000E9     1.643137411391765E-1   -6.537076382735020E1     9.528540593570927E-1   -1.550433692927512E2     9.526411503947391E-1   -1.550518569292441E2     1.636422926553390E-1   -6.167522056178883E1
 1.240000000000000E9     1.643325776029752E-1   -6.556472852724644E1     9.529518699233889E-1   -1.551966813479424E2     9.524166027170263E-1   -1.552255435012046E2     1.637288324645255E-1   -6.182728152688474E1
 1.241250000000000E9     1.643508266309370E-1   -6.567068074510333E1     9.525459856665748E-1   -1.553505042835628E2     9.525452079763466E-1   -1.553882550717805E2     1.636747049395371E-1   -6.200155495184106E1
 1.242500000000000E9     1.642349679444797E-1   -6.588518355933834E1     9.527289312532568E-1   -1.554966777752302E2     9.526026728411323E-1   -1.555479038216863E2     1.635609530321802E-1   -6.208008169612395E1
 1.243750000000000E9     1.639015294563471E-1   -6.605419086335586E1     9.526223115553495E-1   -1.556812018381534E2     9.527470247622859E-1   -1.557065591462490E2     1.637026866935654E-1   -6.232092823717618E1
 1.245000000000000E9     1.638773621455297E-1   -6.638175307748013E1     9.526776301606392E-1   -1.558450605380208E2     9.523978831172262E-1   -1.558806792773620E2     1.634473877890133E-1   -6.239781391371304E1
 1.246250000000000E9     1.638539611905110E-1   -6.652548514768746E1     9.527972082954559E-1   -1.560160231224356E2     9.523944881651453E-1   -1.560367043482713E2     1.634726590443532E-1   -6.254138245321250E1
 1.247500000000000E9     1.638154123194366E-1   -6.650726947260111E1     9.527049593137389E-1   -1.561827547663459E2     9.525222784111349E-1   -1.561863492005556E2     1.630509827259105E-1   -6.271860178882753E1
 1.248750000000000E9     1.638361215108635E-1   -6.675662972483025E1     9.526954300312409E-1   -1.563450691142886E2     9.522688233596742E-1   -1.563702983466210E2     1.636141133465225E-1   -6.281011621381304E1
 1.250000000000000E9     1.635187004311807E-1   -6.691218448581520E1     9.524558154602791E-1   -1.564932122286581E2     9.524067155095443E-1   -1.565405106421120E2     1.629857502596443E-1   -6.306454811181045E1
 1.251250000000000E9     1.635455601210474E-1   -6.703164421770173E1     9.525785738417714E-1   -1.566579584609541E2     9.523054901653134E-1   -1.566855541815941E2     1.629864754033250E-1   -6.311668504488426E1
 1.252500000000000E9     1.633337839176686E-1   -6.721195870505829E1     9.525596601568985E-1   -1.568203691903018E2     9.521903912626140E-1   -1.568616544018511E2     1.627951783111617E-1   -6.319908586750921E1
 1.253750000000000E9     1.634416163435263E-1   -6.751381998411343E1     9.523293710755706E-1   -1.569787081377614E2     9.522566840779858E-1   -1.570080665726641E2     1.627872241720772E-1   -6.351901314988125E1
 1.255000000000000E9     1.632835940008912E-1   -6.767027290690653E1     9.523949431373988E-1   -1.571461360858282E2     9.521468792424328E-1   -1.571782629937169E2     1.627701315221266E-1   -6.361772144033074E1
 1.256250000000000E9     1.630325610769604E-1   -6.776064100471494E1     9.523810556074042E-1   -1.573137847648753E2     9.522928521041113E-1   -1.573442485427929E2     1.626861907237492E-1   -6.373276776817679E1
 1.257500000000000E9     1.631382290620554E-1   -6.791387620182398E1     9.522818246418422E-1   -1.574833277449483E2     9.523540504173461E-1   -1.574833297285079E2     1.625536385053654E-1   -6.387801069921750E1
 1.258750000000000E9     1.630905249965769E-1   -6.806807358688087E1     9.524455624553461E-1   -1.576454868187365E2     9.522289105410913E-1   -1.576656389290957E2     1.622526303950154E-1   -6.402226061216271E1
 1.260000000000000E9     1.632452553516755E-1   -6.827442322947820E1     9.523777131679674E-1   -1.577920266164120E2     9.520861461102781E-1   -1.578310212621162E2     1.624138051994514E-1   -6.422809517143976E1
 1.261250000000000E9     1.631210502362080E-1   -6.835407506679904E1     9.523030859224034E-1   -1.579584880272053E2     9.522877309561044E-1   -1.580006086368019E2     1.622745286978539E-1   -6.443053908300642E1
 1.262500000000000E9     1.629679601523812E-1   -6.859293986531029E1     9.524832513461864E-1   -1.581238528487985E2     9.522808662306023E-1   -1.581622332743148E2     1.619662886827035E-1   -6.446774927379971E1
 1.263750000000000E9     1.624183310083532E-1   -6.873087115824767E1     9.522862242617011E-1   -1.582962908727870E2     9.521713814838356E-1   -1.583196953549464E2     1.620555499755093E-1   -6.458622501551856E1
 1.265000000000000E9     1.625814381974163E-1   -6.889501897684109E1     9.522682198495218E-1   -1.584522119555528E2     9.525050674740084E-1   -1.584791211469862E2     1.619213713683844E-1   -6.476974453678304E1
 1.266250000000000E9     1.625567587730752E-1   -6.906138844126728E1     9.521600781606376E-1   -1.586221691654297E2     9.522183153534969E-1   -1.586309273209273E2     1.621071956018360E-1   -6.489091096152339E1
 1.267500000000000E9     1.626091073485187E-1   -6.923015840158713E1     9.524204583029191E-1   -1.587815672873927E2     9.522539672942636E-1   -1.588101320993387E2     1.619159538628588E-1   -6.506840812607174E1
 1.268750000000000E9     1.623491852360135E-1   -6.939162465204359E1     9.522924639986822E-1   -1.589511824312775E2     9.521335007107654E-1   -1.589616384928953E2     1.617298716045100E-1   -6.522693287332226E1
 1.270000000000000E9     1.622911563512587E-1   -6.962172896500175E1     9.522583102038021E-1   -1.591105521368555E2     9.521649466929027E-1   -1.591317875109651E2     1.616969753245644E-1   -6.537691462605073E1
 1.271250000000000E9     1.624072989035359E-1   -6.976612788327145E1     9.522397492822877E-1   -1.592704022699795E2     9.522734992577296E-1   -1.593105554282499E2     1.616281245726366E-1   -6.546881862917525E1
 1.272500000000000E9     1.622380157151089E-1   -6.991421431730397E1     9.520602616708173E-1   -1.594357418288772E2     9.523613997009936E-1   -1.594484387711254E2     1.613325491047510E-1   -6.569539820836779E1
 1.273750000000000E9     1.620604253109849E-1   -7.016077676851758E1     9.523229211480920E-1   -1.596030267411926E2     9.518702131103655E-1   -1.596144297329539E2     1.616764938650562E-1   -6.581349015569515E1
 1.275000000000000E9     1.618898609744009E-1   -7.023229566055855E1     9.522095218828207E-1   -1.597748556397501E2     9.520511543594197E-1   -1.597875137530089E2     1.616368458872019E-1   -6.591552988568179E1
 1.276250000000000E9     1.619429845268647E-1   -7.036193088391123E1     9.518478767786163E-1   -1.599406443436797E2     9.520388473052929E-1   -1.599540351891037E2     1.612002171159394E-1   -6.611183725864008E1
 1.277500000000000E9     1.618812545669130E-1   -7.064886434808128E1     9.522358108657065E-1   -1.601073497610736E2     9.520443325620255E-1   -1.600979379557440E2     1.610426933414196E-1   -6.622952506978214E1
 1.278750000000000E9     1.615730754169753E-1   -7.060924664353280E1     9.519069005160583E-1   -1.602656125638244E2     9.521960503936204E-1   -1.602829577069665E2     1.610881020798758E-1   -6.641708644970804E1
 1.280000000000000E9     1.616692618575283E-1   -7.093761878075995E1     9.520026430457947E-1   -1.604331739437111E2     9.520662087238865E-1   -1.604452688118078E2     1.609272377044899E-1   -6.653083928589525E1
 1.281250000000000E9     1.615524071996053E-1   -7.105814788329880E1     9.520086734077823E-1   -1.605945903390039E2     9.521934872809055E-1   -1.605971702945224E2     1.610547750710871E-1   -6.665248175126118E1
 1.282500000000000E9     1.614635371273554E-1   -7.131032953268782E1     9.518561182836582E-1   -1.607522237164831E2     9.520791153186925E-1   -1.607689786372909E2     1.608494931346315E-1   -6.678569916290265E1
 1.283750000000000E9     1.617182490428160E-1   -7.141937331824242E1     9.518511163567153E-1   -1.609152996499153E2     9.520401969550435E-1   -1.609393150746566E2     1.604985972836255E-1   -6.694444941754006E1
 1.285000000000000E9     1.610192128209250E-1   -7.153479156075937E1     9.519394515196540E-1   -1.610901961368282E2     9.520927059990990E-1   -1.610988716566728E2     1.605604035977745E-1   -6.724987698574611E1
 1.286250000000000E9     1.616586223527459E-1   -7.172534810406084E1     9.518122472643643E-1   -1.612623585832957E2     9.519779800483557E-1   -1.612583429157131E2     1.605986439305343E-1   -6.736296898535632E1
 1.287500000000000E9     1.610674348987345E-1   -7.183187881612102E1     9.517871629337942E-1   -1.614249574410561E2     9.519289855141663E-1   -1.614170019397201E2     1.604998182832002E-1   -6.743835364713325E1
 1.288750000000000E9     1.611157471118131E-1   -7.196987789763294E1     9.517551860649598E-1   -1.615935600661875E2     9.520172507874672E-1   -1.615885103935283E2     1.603232802968207E-1   -6.765699631935055E1
 1.290000000000000E9     1.607990684475240E-1   -7.224520386139314E1     9.515229881604580E-1   -1.617460544477258E2     9.517401733920811E-1   -1.617386942369287E2     1.599513980717165E-1   -6.771740481904399E1
 1.291250000000000E9     1.608427366967237E-1   -7.236609731001582E1     9.518430285945666E-1   -1.618981798394013E2     9.520065162074252E-1   -1.619153394288704E2     1.603091973149116E-1   -6.794235430573777E1
 1.292500000000000E9     1.605546855891263E-1   -7.254112209484916E1     9.517954723510091E-1   -1.620893037174060E2     9.518802684193781E-1   -1.620741115011282E2     1.602943714525497E-1   -6.811792661343350E1
 1.293750000000000E9     1.608802259887838E-1   -7.263779423295500E1     9.516703191064950E-1   -1.622409794797652E2     9.518503143551971E-1   -1.622517745197781E2     1.601894899308731E-1   -6.816825979738142E1
 1.295000000000000E9     1.607006461692825E-1   -7.278698167961224E1     9.515315952116127E-1   -1.623953792078975E2     9.520998334172568E-1   -1.624152845539607E2     1.599534191956063E-1   -6.837474469501988E1
 1.296250000000000E9     1.604156849229620E-1   -7.295865577260079E1     9.517076820628896E-1   -1.625719354230103E2     9.516663876241773E-1   -1.625741238242530E2     1.599666755125164E-1   -6.852159106007680E1
 1.297500000000000E9     1.603444859673224E-1   -7.317418939485351E1     9.515583623978028E-1   -1.627428800780209E2     9.519404051920370E-1   -1.627491313894190E2     1.599152877391856E-1   -6.860699656314948E1
 1.298750000000000E9     1.603875230849341E-1   -7.335972991950000E1     9.515111403905356E-1   -1.628827355312525E2     9.519768029547629E-1   -1.628997088663820E2     1.598711559801187E-1   -6.876924697907930E1
 1.300000000000000E9     1.600599133142158E-1   -7.350652453019349E1     9.516408953562362E-1   -1.630651078873243E2     9.518078639267267E-1   -1.630768027465098E2     1.598428649560272E-1   -6.892486527709355E1
 1.301250000000000E9     1.599507201632726E-1   -7.376197041643069E1     9.514216194141017E-1   -1.632277066584837E2     9.519081497141840E-1   -1.632466412308282E2     1.596144698367510E-1   -6.900913138184301E1
 1.302500000000000E9     1.599629697153360E-1   -7.378621700058378E1     9.513734273632432E-1   -1.633892247726593E2     9.518457154894348E-1   -1.634083532150472E2     1.596184004668254E-1   -6.918433789892616E1
 1.303750000000000E9     1.598286542604004E-1   -7.403545297984996E1     9.516022749639520E-1   -1.635587137929727E2     9.520617960417705E-1   -1.635733357519300E2     1.594543102231600E-1   -6.936373344735168E1
 1.305000000000000E9     1.594937897100188E-1   -7.424297224930409E1     9.515552283109384E-1   -1.637233757158276E2     9.518837938343153E-1   -1.637251721961150E2     1.596373114940838E-1   -6.950111358070542E1
 1.306250000000000E9     1.595122205479959E-1   -7.432314620090828E1     9.514847137924012E-1   -1.638896824511940E2     9.520858411328935E-1   -1.638891999115205E2     1.596455667555715E-1   -6.951527035420229E1
 1.307500000000000E9     1.594762416584322E-1   -7.439294919137087E1     9.512400236284442E-1   -1.640483178146110E2     9.520838545638564E-1   -1.640361324689677E2     1.594930738836879E-1   -6.968266432975990E1
 1.308750000000000E9     1.594826220339061E-1   -7.467387210484750E1     9.514444134564353E-1   -1.642158932277988E2     9.521688929965113E-1   -1.642006604131015E2     1.593688613044076E-1   -6.973868068728692E1
 1.310000000000000E9     1.593965724284691E-1   -7.479814771650638E1     9.511282765198680E-1   -1.643764287786249E2     9.523360499038860E-1   -1.643583394180484E2     1.593544494977715E-1   -6.992711532061983E1
 1.311250000000000E9     1.594696577931787E-1   -7.496550668672988E1     9.511337987368869E-1   -1.645410441334034E2     9.523359100334184E-1   -1.645310098591166E2     1.593940935772885E-1   -6.996533030247950E1
 1.312500000000000E9     1.591916380546883E-1   -7.518464554340024E1     9.514417631316336E-1   -1.647140358672595E2     9.521820630771510E-1   -1.646886402326225E2     1.592799306908067E-1   -7.011055540907007E1
 1.313750000000000E9     1.589713971934375E-1   -7.531578774305406E1     9.510918587472708E-1   -1.648753868294330E2     9.521917443270287E-1   -1.648514714643324E2     1.592620054712830E-1   -7.024360363046841E1
 1.315000000000000E9     1.591244786321084E-1   -7.557368496933712E1     9.512830579983012E-1   -1.650450536104618E2     9.520209573572755E-1   -1.650120806041885E2     1.588452155394928E-1   -7.031261796292688E1
 1.316250000000000E9     1.587419645822029E-1   -7.560084434375501E1     9.514541416557307E-1   -1.652029778785019E2     9.522860034824280E-1   -1.651723230645421E2     1.588410224965925E-1   -7.046724859987336E1
 1.317500000000000E9     1.587321846246656E-1   -7.580163813488609E1     9.514192225618882E-1   -1.653606802696345E2     9.521128500128484E-1   -1.653351167977127E2     1.586799254195709E-1   -7.066992980436525E1
 1.318750000000000E9     1.585451893349450E-1   -7.604836967647395E1     9.512549258595014E-1   -1.655348656762196E2     9.522726554634144E-1   -1.654956886575524E2     1.586448819500881E-1   -7.081459699368106E1
 1.320000000000000E9     1.586522962650693E-1   -7.603759686926827E1     9.510750640240768E-1   -1.656888672376010E2     9.521419504339961E-1   -1.656409246321628E2     1.585249990729173E-1   -7.090103344533306E1
 1.321250000000000E9     1.584482594999460E-1   -7.636327671842005E1     9.511989831445915E-1   -1.658566510667320E2     9.524310578307776E-1   -1.658134042206391E2     1.583116689354298E-1   -7.105056001930295E1
 1.322500000000000E9     1.583283807645307E-1   -7.637539640993803E1     9.511087011804751E-1   -1.660229207859179E2     9.522524223162165E-1   -1.659879697210154E2     1.582349451519126E-1   -7.116306217373277E1
 1.323750000000000E9     1.582793396964636E-1   -7.665219071423884E1     9.512245840583893E-1   -1.661959137669074E2     9.520036771862537E-1   -1.661424766136054E2     1.583547664060587E-1   -7.121031004385728E1
 1.325000000000000E9     1.583266714726098E-1   -7.676843303887706E1     9.510168407372690E-1   -1.663563383286633E2     9.521650391441034E-1   -1.663036630688570E2     1.578164637176456E-1   -7.130248360176729E1
 1.326250000000000E9     1.581479004764703E-1   -7.690938202085975E1     9.510756478268305E-1   -1.665377647565819E2     9.520689018210220E-1   -1.664770061801133E2     1.577163949519118E-1   -7.152080152472917E1
 1.327500000000000E9     1.579426327513062E-1   -7.716423534040787E1     9.510690235708521E-1   -1.667056633742305E2     9.520045865138465E-1   -1.666374626828294E2     1.577391504708347E-1   -7.156799304313562E1
 1.328750000000000E9     1.579814721951959E-1   -7.735583611156115E1     9.511051153116987E-1   -1.668681691429072E2     9.520425013905778E-1   -1.667957268900913E2     1.577524153510955E-1   -7.171129245379619E1
 1.330000000000000E9     1.579102439508044E-1   -7.743447869585486E1     9.512046241024579E-1   -1.670216227491244E2     9.520730215233245E-1   -1.669644140742594E2     1.577052791113384E-1   -7.197123640391686E1
 1.331250000000000E9     1.578095184849238E-1   -7.771160926020973E1     9.512245478942937E-1   -1.671983768638310E2     9.519368923710851E-1   -1.671215672687717E2     1.573385617875710E-1   -7.201346160407546E1
 1.332500000000000E9     1.574738095646531E-1   -7.787732832100271E1     9.510379620133990E-1   -1.673652766759248E2     9.518087213164036E-1   -1.672949445483137E2     1.569411182438675E-1   -7.222360953158319E1
 1.333750000000000E9     1.572853548212210E-1   -7.790356786459614E1     9.508562781009680E-1   -1.675274594687043E2     9.518928291405852E-1   -1.674582448638266E2     1.573612817062510E-1   -7.234734027376886E1
 1.335000000000000E9     1.572419843212459E-1   -7.810789766903112E1     9.509285336941453E-1   -1.677149688609506E2     9.517688631230865E-1   -1.676332236940064E2     1.567655407502504E-1   -7.251006384017244E1
 1.336250000000000E9     1.571984899781066E-1   -7.832913241526560E1     9.510683895706027E-1   -1.678714751903825E2     9.516217090543223E-1   -1.678013723514202E2     1.568688058528654E-1   -7.256558575251874E1
 1.337500000000000E9     1.572673765984121E-1   -7.848062790515591E1     9.509131839980286E-1   -1.680430134356967E2     9.518116235894607E-1   -1.679652276574259E2     1.566743034423956E-1   -7.282387365084328E1
 1.338750000000000E9     1.569575550016696E-1   -7.871331263404784E1     9.511834142343886E-1   -1.682039965666642E2     9.517615035760016E-1   -1.681234929668928E2     1.566106688452964E-1   -7.289817765722037E1
 1.340000000000000E9     1.567570633752277E-1   -7.883600209631149E1     9.510795758454301E-1   -1.683738927338924E2     9.515659057945350E-1   -1.682901096627305E2     1.567737700538943E-1   -7.295759351239064E1
 1.341250000000000E9     1.565305609298812E-1   -7.895389168339004E1     9.507356272698936E-1   -1.685414910861392E2     9.515774061977291E-1   -1.684684594451402E2     1.565767907057176E-1   -7.311721788193515E1
 1.342500000000000E9     1.566914126718958E-1   -7.921463842012834E1     9.508353280700632E-1   -1.687040853422104E2     9.516659903367752E-1   -1.686261422375121E2     1.563327033884923E-1   -7.328525407465087E1
 1.343750000000000E9     1.567034306082305E-1   -7.934491127051010E1     9.510357239401543E-1   -1.688672800313126E2     9.515936609417930E-1   -1.687927312454110E2     1.560976695175351E-1   -7.349617760397798E1
 1.345000000000000E9     1.565021582323568E-1   -7.948119612052814E1     9.513339880169861E-1   -1.690334557947284E2     9.514330478403211E-1   -1.689607545175411E2     1.561044408338448E-1   -7.347671750126180E1
 1.346250000000000E9     1.563340498640537E-1   -7.978646143573224E1     9.510641368512960E-1   -1.691917940213654E2     9.516190334295860E-1   -1.691357585394405E2     1.557993244646169E-1   -7.373340281903010E1
 1.347500000000000E9     1.560701074444401E-1   -7.995344169211012E1     9.507866442940494E-1   -1.693595943292172E2     9.515485843501326E-1   -1.692949923165052E2     1.559241305495979E-1   -7.384403041097991E1
 1.348750000000000E9     1.560453439916623E-1   -8.000902793739820E1     9.509540319374111E-1   -1.695246919533651E2     9.516039016862453E-1   -1.694607966533211E2     1.555548624596048E-1   -7.407231239944625E1
 1.350000000000000E9     1.557854638583888E-1   -8.018581470238044E1     9.510114475894784E-1   -1.696954690298965E2     9.515992430621740E-1   -1.696186213232099E2     1.558159690207572E-1   -7.418350092615096E1
 1.351250000000000E9     1.556527542100018E-1   -8.047261429382212E1     9.509382511573428E-1   -1.698634888799770E2     9.515094773696148E-1   -1.697929705476021E2     1.556349672862389E-1   -7.423978201193698E1
 1.352500000000000E9     1.558450631720753E-1   -8.061593007403698E1     9.509091234462638E-1   -1.700340758274453E2     9.515854562115770E-1   -1.699696047299593E2     1.553488383864647E-1   -7.437034654887965E1
 1.353750000000000E9     1.555551329282669E-1   -8.070608154540348E1     9.510158280536180E-1   -1.701935285075137E2     9.512725033978023E-1   -1.701320757676311E2     1.552371411059389E-1   -7.446553241277314E1
 1.355000000000000E9     1.553840953768359E-1   -8.095607741474979E1     9.509513263501705E-1   -1.703642585734405E2     9.515470748335143E-1   -1.703097890050076E2     1.553628975263324E-1   -7.467786042441628E1
 1.356250000000000E9     1.550673264639347E-1   -8.110303096240156E1     9.509753683204479E-1   -1.705282855248164E2     9.515773704968271E-1   -1.704696736139079E2     1.549619195330209E-1   -7.481676890681445E1
 1.357500000000000E9     1.552719250331614E-1   -8.121709925854660E1     9.510476516373744E-1   -1.707027214124072E2     9.513882267445769E-1   -1.706319975941811E2     1.545688669861983E-1   -7.491594939924438E1
 1.358750000000000E9     1.550677055765569E-1   -8.140656805755931E1     9.509314533591937E-1   -1.708516347112680E2     9.516479724555400E-1   -1.707915425339418E2     1.548019562787136E-1   -7.514542299838246E1
 1.360000000000000E9     1.547335485058517E-1   -8.166370728207332E1     9.508992476337319E-1   -1.710281416330816E2     9.514593319903428E-1   -1.709566589693231E2     1.545008015791711E-1   -7.518234881047638E1
 1.361250000000000E9     1.546824628352629E-1   -8.167505814406880E1     9.508896857144329E-1   -1.712037625454793E2     9.511907745833628E-1   -1.711276645275925E2     1.544502503424735E-1   -7.536641920941378E1
 1.362500000000000E9     1.543963100065135E-1   -8.190684751500319E1     9.508384522399371E-1   -1.713565298757505E2     9.514765220877861E-1   -1.712892191179349E2     1.542826540374687E-1   -7.545854628462257E1
 1.363750000000000E9     1.541243790329870E-1   -8.210158645931644E1     9.508759892587065E-1   -1.715373419990908E2     9.515018452298318E-1   -1.714649565161442E2     1.542273975042842E-1   -7.564064108359675E1
 1.365000000000000E9     1.542637229101085E-1   -8.231483763535864E1     9.505909833871024E-1   -1.717132172117872E2     9.514337943540538E-1   -1.716181762195129E2     1.540995351701250E-1   -7.569773269454514E1
 1.366250000000000E9     1.539608756338601E-1   -8.240336036465757E1     9.506114759202814E-1   -1.718810859664904E2     9.513990814713537E-1   -1.717859117197403E2     1.539134547519893E-1   -7.592541103569960E1
 1.367500000000000E9     1.538506595712091E-1   -8.260132599522058E1     9.507017888759454E-1   -1.720401496935256E2     9.513223683174582E-1   -1.719537837345224E2     1.536961600785152E-1   -7.603161117086549E1
 1.368750000000000E9     1.538276545720845E-1   -8.280991174414896E1     9.508455974588627E-1   -1.722011146595318E2     9.514888558380201E-1   -1.721265125850161E2     1.535362322105057E-1   -7.620286402149060E1
 1.370000000000000E9     1.536717808880515E-1   -8.302166555175123E1     9.507848299677928E-1   -1.723781471210930E2     9.514121744562803E-1   -1.722933877977677E2     1.535100975649725E-1   -7.633829919215277E1
 1.371250000000000E9     1.534831597716494E-1   -8.312119261289597E1     9.508911553519073E-1   -1.725453308091799E2     9.512673583089685E-1   -1.724681104263150E2     1.532514263029602E-1   -7.646669604120022E1
 1.372500000000000E9     1.532841663933333E-1   -8.342550516265013E1     9.505438518135937E-1   -1.727207281243079E2     9.513950139068437E-1   -1.726380264387794E2     1.531195537627126E-1   -7.652030860500074E1
 1.373750000000000E9     1.533111293771807E-1   -8.355297237234795E1     9.507609991869449E-1   -1.728957520899922E2     9.512976233010901E-1   -1.728066970047653E2     1.530067181872845E-1   -7.674251881048160E1
 1.375000000000000E9     1.528285382987424E-1   -8.368736506218320E1     9.506508849858619E-1   -1.730576291056496E2     9.514409683211110E-1   -1.729852177131255E2     1.526882826858688E-1   -7.688912744096277E1
 1.376250000000000E9     1.527628204391311E-1   -8.387281145351623E1     9.506431888684732E-1   -1.732311885090745E2     9.512696953735734E-1   -1.731384891664213E2     1.527342837119768E-1   -7.708713484161204E1
 1.377500000000000E9     1.526127603309744E-1   -8.400741194124576E1     9.504522203210302E-1   -1.733971189828851E2     9.510364330598597E-1   -1.733046732196974E2     1.522829130734051E-1   -7.713837608860294E1
 1.378750000000000E9     1.523929274482595E-1   -8.423486605179518E1     9.505828008824767E-1   -1.735720242371358E2     9.510880766046730E-1   -1.734857381554338E2     1.525166104529321E-1   -7.729766028891865E1
 1.380000000000000E9     1.524036583483590E-1   -8.443084628773451E1     9.506203895905276E-1   -1.737215795653593E2     9.513501726393695E-1   -1.736562559858949E2     1.523567428964884E-1   -7.739068460204992E1
 1.381250000000000E9     1.522947945307481E-1   -8.453719210926070E1     9.503605365298757E-1   -1.738955365859544E2     9.514046495090338E-1   -1.738133079847053E2     1.520277253770743E-1   -7.753768435965043E1
 1.382500000000000E9     1.518816456813842E-1   -8.464388334479855E1     9.504797718369074E-1   -1.740800742084041E2     9.510670970843240E-1   -1.739856096886961E2     1.517916931018016E-1   -7.778765254519068E1
 1.383750000000000E9     1.517608204794778E-1   -8.494767593377981E1     9.506223569933778E-1   -1.742423094913059E2     9.511724206576159E-1   -1.741573993079588E2     1.516159335226479E-1   -7.788509562900080E1
 1.385000000000000E9     1.518532921042053E-1   -8.498180109736467E1     9.504400785872184E-1   -1.744167366844633E2     9.511729121923204E-1   -1.743228943831937E2     1.517770006762026E-1   -7.799003481352094E1
 1.386250000000000E9     1.514739784714985E-1   -8.524655198311828E1     9.505381415777189E-1   -1.745698699151229E2     9.511621052929740E-1   -1.745036333460623E2     1.510633595142259E-1   -7.813811759916908E1
 1.387500000000000E9     1.513201813654142E-1   -8.542454546387486E1     9.503937000331141E-1   -1.747441492606999E2     9.511656972618211E-1   -1.746519087206667E2     1.512958786529073E-1   -7.827013569733771E1
 1.388750000000000E9     1.512455474458641E-1   -8.561419734285288E1     9.504224245676578E-1   -1.749071709478374E2     9.509068971010113E-1   -1.748434930235047E2     1.509882341151887E-1   -7.849288405097305E1
 1.390000000000000E9     1.508776786600276E-1   -8.570482311917286E1     9.504133647773855E-1   -1.750752318344030E2     9.510233519163359E-1   -1.750067873543539E2     1.507926067686230E-1   -7.861687647475522E1
 1.391250000000000E9     1.510671905081321E-1   -8.598569076271177E1     9.504210977387156E-1   -1.752505463784188E2     9.510526689359826E-1   -1.751528048494378E2     1.506829665456735E-1   -7.880159143609896E1
 1.392500000000000E9     1.505183294238989E-1   -8.607166377670403E1     9.504073907040002E-1   -1.754131754666334E2     9.509710782814355E-1   -1.753366051853781E2     1.505293121879628E-1   -7.888292172656894E1
 1.393750000000000E9     1.508124051661633E-1   -8.631792115575765E1     9.502809700474220E-1   -1.755905877635290E2     9.509623270330924E-1   -1.755071618587688E2     1.502483898088184E-1   -7.901431348469264E1
 1.395000000000000E9     1.505876905560388E-1   -8.644457883251495E1     9.503866526866669E-1   -1.757606110117937E2     9.509547964565536E-1   -1.756946374168398E2     1.501518783679310E-1   -7.930160224236276E1
 1.396250000000000E9     1.502923834777381E-1   -8.656601829771544E1     9.503703321546345E-1   -1.759371619055221E2     9.509762577571074E-1   -1.758414959739889E2     1.500555542967867E-1   -7.930086847648684E1
 1.397500000000000E9     1.499857399648015E-1   -8.673469656144998E1     9.504087613419421E-1   -1.761054598316626E2     9.510374192259468E-1   -1.760286534251678E2     1.498103019671779E-1   -7.959859170827096E1
 1.398750000000000E9     1.500580967685085E-1   -8.699212042144813E1     9.503032669604250E-1   -1.762744560654825E2     9.509643114023665E-1   -1.762070449138693E2     1.495961541726468E-1   -7.961087135523975E1
 1.400000000000000E9     1.493694245550490E-1   -8.717393880046346E1     9.503252964181822E-1   -1.764580138411023E2     9.511574324693767E-1   -1.763717432305528E2     1.494727794710960E-1   -7.977405336215784E1
 1.401250000000000E9     1.495702454873465E-1   -8.733592929328518E1     9.501783125341834E-1   -1.766015533829371E2     9.509147968700480E-1   -1.765303771507689E2     1.491552654700728E-1   -7.995911853318962E1
 1.402500000000000E9     1.492420373645842E-1   -8.737493985698457E1     9.504514917477535E-1   -1.767779878438699E2     9.508603756012685E-1   -1.766933607964860E2     1.489311428005430E-1   -8.012068395992138E1
 1.403750000000000E9     1.490416515426741E-1   -8.766241634115694E1     9.500318406606265E-1   -1.769347629682192E2     9.510667487570740E-1   -1.768736116176480E2     1.486299098174081E-1   -8.028594637885234E1
 1.405000000000000E9     1.487791500307805E-1   -8.781125502484879E1     9.501820612530879E-1   -1.771169628590360E2     9.508487460236036E-1   -1.770302349263439E2     1.483793410005752E-1   -8.037345736523375E1
 1.406250000000000E9     1.485457395299530E-1   -8.805224789064160E1     9.502617157820961E-1   -1.772780851533567E2     9.508781811628565E-1   -1.772062890458880E2     1.484669951217275E-1   -8.052518627152419E1
 1.407500000000000E9     1.486351659528482E-1   -8.821986344587684E1     9.500441064148107E-1   -1.774540101934670E2     9.508740280104586E-1   -1.774015628291390E2     1.482340924012186E-1   -8.063410194655165E1
 1.408750000000000E9     1.483951680505535E-1   -8.833708998515077E1     9.501973711424292E-1   -1.776346646623039E2     9.508418531682906E-1   -1.775659716827188E2     1.480956056566562E-1   -8.078155320377046E1
 1.410000000000000E9     1.480410079107390E-1   -8.852412585517517E1     9.500036987447013E-1   -1.777980225060689E2     9.508875479857449E-1   -1.777122044647239E2     1.478077939879434E-1   -8.092702167825566E1
 1.411250000000000E9     1.480794209037274E-1   -8.866990617130769E1     9.499888009228837E-1   -1.779604017615842E2     9.508444450272501E-1   -1.778853069705041E2     1.478685467517062E-1   -8.109063402555348E1
 1.412500000000000E9     1.478353426638621E-1   -8.879446078850502E1     9.500644409076251E-1   -1.781487136053146E2     9.510235493709546E-1   -1.780634959371679E2     1.475484835359204E-1   -8.122187466733827E1
 1.413750000000000E9     1.475629211898662E-1   -8.907464321914433E1     9.499594868144414E-1   -1.783205787997431E2     9.504892894919017E-1   -1.782248747691297E2     1.473214226175282E-1   -8.132900790450658E1
 1.415000000000000E9     1.475209586922695E-1   -8.923065999959992E1     9.500112439308434E-1   -1.784827884429569E2     9.506676979673504E-1   -1.783983584319981E2     1.471077506271261E-1   -8.153197831784163E1
 1.416250000000000E9     1.471714827648425E-1   -8.935449601248381E1     9.499224345736863E-1   -1.786620969146472E2     9.507470013195732E-1   -1.785644648710816E2     1.470290436024538E-1   -8.165281959105783E1
 1.417500000000000E9     1.471607205416315E-1   -8.947713324321917E1     9.499606085584537E-1   -1.788104573683038E2     9.505859645241990E-1   -1.787379080076147E2     1.468788202974493E-1   -8.184036237588074E1
 1.418750000000000E9     1.471967686818750E-1   -8.972217885065594E1     9.498242551669357E-1   -1.789988181746958E2     9.507991684186761E-1   -1.789146284904425E2     1.462559878561718E-1   -8.198640175384554E1
 1.420000000000000E9     1.465545948089524E-1   -8.992950729264332E1     9.497947732173919E-1   -1.791572558252086E2     9.504793347504348E-1   -1.790917845737055E2     1.464099932792635E-1   -8.218910074268061E1
 1.421250000000000E9     1.466299151461727E-1   -9.014304784103720E1     9.495749791570345E-1   -1.793425028874298E2     9.508812492735733E-1   -1.792439223656119E2     1.461500467015147E-1   -8.229028258612421E1
 1.422500000000000E9     1.463715478003864E-1   -9.031783683851383E1     9.497608430255722E-1   -1.795113746490394E2     9.506549866530208E-1   -1.794206848284250E2     1.460710977542152E-1   -8.238183610095794E1
 1.423750000000000E9     1.459919043245946E-1   -9.042319124114631E1     9.500274401639230E-1   -1.796788237946948E2     9.505337858136810E-1   -1.796082311184292E2     1.458745604458420E-1   -8.253825874701337E1
 1.425000000000000E9     1.457894585679675E-1   -9.059964779783208E1     9.497048405485715E-1   -1.798528426858645E2     9.506603848687289E-1   -1.797708585130058E2     1.456316298294986E-1   -8.277967411412838E1
 1.426250000000000E9     1.456635960504878E-1   -9.066745991633168E1     9.497235760611173E-1    1.799800526067255E2     9.504761913067434E-1   -1.799530091054118E2     1.453081590306443E-1   -8.288270830759629E1
 1.427500000000000E9     1.454897026398194E-1   -9.101176841155586E1     9.497385537053223E-1    1.798136576575890E2     9.503027314992846E-1    1.798947899836861E2     1.450491286683227E-1   -8.302806852584072E1
 1.428750000000000E9     1.453134834522723E-1   -9.120214468043518E1     9.496563938808377E-1    1.796270367715930E2     9.504859561043287E-1    1.797243360879026E2     1.450124584810145E-1   -8.312476411943136E1
 1.430000000000000E9     1.449486043638279E-1   -9.140776712523592E1     9.496153334743492E-1    1.794802752724677E2     9.505864917107544E-1    1.795420921657284E2     1.448561771933433E-1   -8.327333431944459E1
 1.431250000000000E9     1.447456070788041E-1   -9.149967514964537E1     9.496748058451787E-1    1.792973817262815E2     9.504639929219164E-1    1.793609553277755E2     1.445142533303739E-1   -8.348590205512683E1
 1.432500000000000E9     1.445320532511564E-1   -9.170127142644432E1     9.498825630019448E-1    1.791231402354296E2     9.506125132492534E-1    1.792228606966468E2     1.445390106719810E-1   -8.362110947578354E1
 1.433750000000000E9     1.446162295198197E-1   -9.185608765323032E1     9.497023367417822E-1    1.789691203581216E2     9.504539730561854E-1    1.790335449508349E2     1.441631169724014E-1   -8.367947082281711E1
 1.435000000000000E9     1.441925407074947E-1   -9.200078438990838E1     9.496372662227209E-1    1.787815538390666E2     9.503189234644009E-1    1.788501252817452E2     1.441171750830682E-1   -8.387168688169361E1
 1.436250000000000E9     1.437797550732260E-1   -9.226997596629732E1     9.497804039898213E-1    1.786104301273986E2     9.504954682925822E-1    1.786865988693588E2     1.438520938979337E-1   -8.411235881835299E1
 1.437500000000000E9     1.435853261615271E-1   -9.246222118846265E1     9.495160141061286E-1    1.784413757846865E2     9.505586694560235E-1    1.785147147943282E2     1.435448958276903E-1   -8.415971573269415E1
 1.438750000000000E9     1.434704803769370E-1   -9.253968986161794E1     9.495956245077206E-1    1.782835089935540E2     9.503601131602002E-1    1.783392056306961E2     1.433817599034063E-1   -8.424063683703396E1
 1.440000000000000E9     1.430818537330724E-1   -9.272621933525792E1     9.496753544530031E-1    1.781005811824674E2     9.505543124179628E-1    1.781654458483445E2     1.432979822344846E-1   -8.460813961754208E1
 1.441250000000000E9     1.429977031647023E-1   -9.284767414105687E1     9.496069756838488E-1    1.779332822192139E2     9.505580003381350E-1    1.779943587323833E2     1.431204401971010E-1   -8.465596231387981E1
 1.442500000000000E9     1.426124203705288E-1   -9.311694442544052E1     9.495722265540359E-1    1.777578030223767E2     9.505010024518754E-1    1.778077188562658E2     1.426626135641815E-1   -8.473367304336888E1
 1.443750000000000E9     1.425324721522938E-1   -9.328675844223972E1     9.496092133616856E-1    1.775895096289427E2     9.503868557713535E-1    1.776499780457215E2     1.426968960256676E-1   -8.491135277626772E1
 1.445000000000000E9     1.421809406326316E-1   -9.342966586810512E1     9.494956113117060E-1    1.774095537699257E2     9.507497900759384E-1    1.774694499988319E2     1.423525083218957E-1   -8.509808366426428E1
 1.446250000000000E9     1.421474105578814E-1   -9.365986408358000E1     9.494292758734003E-1    1.772474463850833E2     9.505090901333147E-1    1.772930988898422E2     1.424776894099757E-1   -8.537811351061916E1
 1.447500000000000E9     1.415840546123159E-1   -9.380999993762306E1     9.493019771183215E-1    1.770655706793302E2     9.505568762692115E-1    1.771052101451709E2     1.419634702761830E-1   -8.547454412015662E1
 1.448750000000000E9     1.415259305261043E-1   -9.395735382422912E1     9.495306431894911E-1    1.769018366319735E2     9.504976695746321E-1    1.769290267070601E2     1.417480493046083E-1   -8.570826040121057E1
 1.450000000000000E9     1.415679022349354E-1   -9.418040888521385E1     9.494472912904534E-1    1.767263718367160E2     9.506391921712312E-1    1.767627946251608E2     1.416418443490279E-1   -8.592235813333282E1
 1.451250000000000E9     1.413777164029374E-1   -9.435013494334798E1     9.495180894159240E-1    1.765609730035840E2     9.505843615743312E-1    1.765788508527134E2     1.414035061563890E-1   -8.610541969237730E1
 1.452500000000000E9     1.407297754361800E-1   -9.442873215516225E1     9.495307054954809E-1    1.763823201471681E2     9.504940010574869E-1    1.764023577056720E2     1.410945635533887E-1   -8.618163308642077E1
 1.453750000000000E9     1.404315434395462E-1   -9.454931380607555E1     9.493356844460483E-1    1.762022556323471E2     9.501986102556060E-1    1.762363517216211E2     1.408490481372275E-1   -8.640578401415026E1
 1.455000000000000E9     1.403869776418010E-1   -9.475336395846286E1     9.494077758322267E-1    1.760371817845747E2     9.506267277830064E-1    1.760483039115036E2     1.404553987427750E-1   -8.648624195882634E1
 1.456250000000000E9     1.402894623491189E-1   -9.510707865252490E1     9.494203852871665E-1    1.758620787340478E2     9.501844710907299E-1    1.758732973707530E2     1.404339551935725E-1   -8.658978478611439E1
 1.457500000000000E9     1.399102769779553E-1   -9.516812551202847E1     9.493112134155908E-1    1.756779771138661E2     9.504007727873418E-1    1.756975316426353E2     1.403681829658669E-1   -8.686102655076979E1
 1.458750000000000E9     1.398509699141963E-1   -9.535431502190137E1     9.491899757149469E-1    1.755181039543361E2     9.502103091758949E-1    1.755192299689010E2     1.396505232113529E-1   -8.700033105376008E1
 1.460000000000000E9     1.393170155448298E-1   -9.554888623875429E1     9.492898338127461E-1    1.753381985031058E2     9.501941942622447E-1    1.753478457702078E2     1.393963429775317E-1   -8.708399086698603E1
 1.461250000000000E9     1.391197379505246E-1   -9.569206499737960E1     9.491387364519905E-1    1.751537340284079E2     9.500977701315078E-1    1.751742171040634E2     1.393423179482838E-1   -8.733813705882731E1
 1.462500000000000E9     1.385789425742463E-1   -9.586110233223431E1     9.495448288609826E-1    1.749996828150010E2     9.501292056201660E-1    1.750048736662285E2     1.394173676005977E-1   -8.753248567926723E1
 1.463750000000000E9     1.385423617042679E-1   -9.605651995766135E1     9.495289799119029E-1    1.748030452397137E2     9.499366286866193E-1    1.748231108374632E2     1.389853035281838E-1   -8.763199895951090E1
 1.465000000000000E9     1.385337256786525E-1   -9.626062916135255E1     9.490826298356335E-1    1.746466250227800E2     9.502060176169377E-1    1.746582132508055E2     1.385378005917421E-1   -8.767332466428384E1
 1.466250000000000E9     1.378883064326903E-1   -9.635263965658369E1     9.493090965870157E-1    1.744716013100559E2     9.499639496494178E-1    1.744736245395901E2     1.383508177703529E-1   -8.784187072926825E1
 1.467500000000000E9     1.376067113694952E-1   -9.658843288165215E1     9.491957292484690E-1    1.742917813086695E2     9.502500944732210E-1    1.742975074138982E2     1.383673777039449E-1   -8.796681851937983E1
 1.468750000000000E9     1.375293998522909E-1   -9.675466518300853E1     9.493820716812043E-1    1.741182709206119E2     9.498421058229110E-1    1.741288122435891E2     1.377365109077558E-1   -8.812851452405674E1
 1.470000000000000E9     1.373656839582177E-1   -9.701291549700859E1     9.495019860920590E-1    1.739489969491813E2     9.499795531813361E-1    1.739497587578877E2     1.374576935397108E-1   -8.827076703253159E1
 1.471250000000000E9     1.372262577206452E-1   -9.701766012590329E1     9.492718653059020E-1    1.737829928081352E2     9.500089857083769E-1    1.737840112623924E2     1.375229798766711E-1   -8.836774060959608E1
 1.472500000000000E9     1.365919084694247E-1   -9.731594130337491E1     9.492089998719790E-1    1.735967116678061E2     9.497589057366679E-1    1.736116986898796E2     1.368338148082863E-1   -8.850899594865976E1
 1.473750000000000E9     1.365773933665415E-1   -9.745408198420745E1     9.494410301792864E-1    1.733979783609674E2     9.499153363379722E-1    1.734238938403300E2     1.366675102585500E-1   -8.875327674586825E1
 1.475000000000000E9     1.361823309089635E-1   -9.771233291317671E1     9.494004217549940E-1    1.732395213920430E2     9.498813198276663E-1    1.732578586705096E2     1.363867073504512E-1   -8.872152450589999E1
 1.476250000000000E9     1.357770833111311E-1   -9.784801478600966E1     9.495801126543145E-1    1.730728038175862E2     9.499339156261839E-1    1.730787739768039E2     1.364497632147923E-1   -8.902661327241580E1
 1.477500000000000E9     1.358891015008938E-1   -9.786321416292660E1     9.494832757794964E-1    1.729005930406532E2     9.498685130425114E-1    1.729044203263776E2     1.361069542837516E-1   -8.906990236360211E1
 1.478750000000000E9     1.355747593038363E-1   -9.811011289590036E1     9.492995705437435E-1    1.727236214106798E2     9.499409836442391E-1    1.727160799760639E2     1.358383215164199E-1   -8.922706505020224E1
 1.480000000000000E9     1.351814001463038E-1   -9.829066280455571E1     9.495928038970661E-1    1.725508916230009E2     9.497681081153354E-1    1.725511862655638E2     1.357872611752068E-1   -8.928627330812674E1
 1.481250000000000E9     1.349553592365569E-1   -9.844607669379667E1     9.493847105099260E-1    1.723727280056226E2     9.500001834278103E-1    1.723768674230142E2     1.353161932893684E-1   -8.946711017878208E1
 1.482500000000000E9     1.345096327011361E-1   -9.862528874152677E1     9.494706908438819E-1    1.722028618186637E2     9.500114515105708E-1    1.722102607076190E2     1.350218700909937E-1   -8.964180268328657E1
 1.483750000000000E9     1.344739047891393E-1   -9.880250607437453E1     9.494987944835834E-1    1.720160330075401E2     9.498037712224394E-1    1.720355507018157E2     1.347551170168424E-1   -8.980519016023362E1
 1.485000000000000E9     1.340373493938546E-1   -9.904068188603881E1     9.494813635905740E-1    1.718407535399123E2     9.500063274851298E-1    1.718479583470566E2     1.344566206642558E-1   -8.984857229065300E1
 1.486250000000000E9     1.338438118515404E-1   -9.925048302835027E1     9.495666572124034E-1    1.716671862892825E2     9.498435128879676E-1    1.716635227042068E2     1.342459007950912E-1   -9.002424662257390E1
 1.487500000000000E9     1.334119831991026E-1   -9.934154468168119E1     9.494913677873533E-1    1.714892254540848E2     9.497864499302617E-1    1.715035490784472E2     1.338365828872719E-1   -9.015003952188846E1
 1.488750000000000E9     1.331720783418730E-1   -9.952154218862947E1     9.490314702323219E-1    1.713130803165041E2     9.498902316486070E-1    1.713459141923449E2     1.340732444687575E-1   -9.017684686972443E1
 1.490000000000000E9     1.330280140082160E-1   -9.968193183253585E1     9.493067126210153E-1    1.711407074288672E2     9.500288875346830E-1    1.711547411840319E2     1.335876894837037E-1   -9.041771825598697E1
 1.491250000000000E9     1.325500585943633E-1   -9.980507826615026E1     9.492863971841132E-1    1.709660469976133E2     9.500251559713182E-1    1.709746634080178E2     1.333785358220151E-1   -9.047492504367955E1
 1.492500000000000E9     1.324334850396792E-1   -1.001013391275643E2     9.492010846965295E-1    1.708027134228932E2     9.500887947255973E-1    1.707964026180022E2     1.329150558878654E-1   -9.062338848321546E1
 1.493750000000000E9     1.320405577906472E-1   -1.002691292266451E2     9.491024003942334E-1    1.706065856745159E2     9.501137251142334E-1    1.706390358486549E2     1.329423035383072E-1   -9.075624106670912E1
 1.495000000000000E9     1.317178852782266E-1   -1.005352948142015E2     9.489389612603728E-1    1.704386119481122E2     9.498244934967606E-1    1.704431647972386E2     1.326656430803352E-1   -9.086730740709615E1
 1.496250000000000E9     1.315409252074468E-1   -1.005371522861907E2     9.492216359342962E-1    1.702486149922583E2     9.500347588813093E-1    1.702873866302694E2     1.324626220123837E-1   -9.097776529063511E1
 1.497500000000000E9     1.313356249103667E-1   -1.007785414762304E2     9.493692209828293E-1    1.700963509101410E2     9.501072511538093E-1    1.700932066361675E2     1.321945744121413E-1   -9.104357520467381E1
 1.498750000000000E9     1.312137877223969E-1   -1.009357831190586E2     9.490021760381605E-1    1.699136193714248E2     9.499492170804129E-1    1.699267432810213E2     1.316078726902437E-1   -9.122048112601857E1
 1.500000000000000E9     1.307621216323220E-1   -1.010707537739431E2     9.493007835996075E-1    1.697377165225770E2     9.499151573365867E-1    1.697595157461453E2     1.315317002464357E-1   -9.131620629371622E1
 1.501250000000000E9     1.304477193803640E-1   -1.013370873650759E2     9.491776539217092E-1    1.695587155007826E2     9.497923406875706E-1    1.695691348035859E2     1.310510275448249E-1   -9.137473737692922E1
 1.502500000000000E9     1.301666977572755E-1   -1.014453204311614E2     9.488415699437558E-1    1.693836032302550E2     9.498043183778300E-1    1.693958789360109E2     1.308419019225289E-1   -9.147137493252910E1
 1.503750000000000E9     1.296609090023629E-1   -1.016791727335568E2     9.488558523678559E-1    1.691821431170289E2     9.499224620387379E-1    1.692441939634256E2     1.305585663181448E-1   -9.164918389776099E1
 1.505000000000000E9     1.296706364781519E-1   -1.019041094125928E2     9.487691088832365E-1    1.690227911501734E2     9.501913071593072E-1    1.690709429397438E2     1.304022574242618E-1   -9.172662642775188E1
 1.506250000000000E9     1.292618345110232E-1   -1.018693302433231E2     9.489603408305888E-1    1.688481494513056E2     9.498595127251460E-1    1.688785970451201E2     1.302385791504598E-1   -9.187683517247648E1
 1.507500000000000E9     1.289103737117589E-1   -1.023271955544843E2     9.490911775392490E-1    1.686818485757202E2     9.500141497682816E-1    1.687099470060629E2     1.298657897387912E-1   -9.204605468049051E1
 1.508750000000000E9     1.287297665743241E-1   -1.023595778128817E2     9.490382077927013E-1    1.684934573596469E2     9.500402896198791E-1    1.685275017247108E2     1.297027990421405E-1   -9.217342042524517E1
 1.510000000000000E9     1.283873048838798E-1   -1.026315102103397E2     9.489646188276696E-1    1.683111493738315E2     9.499567956420431E-1    1.683679507763372E2     1.291317425968707E-1   -9.215308295127186E1
 1.511250000000000E9     1.282715387220389E-1   -1.027823517647105E2     9.487668759795823E-1    1.681346859234183E2     9.501292291242770E-1    1.681870584226142E2     1.292652603224828E-1   -9.222116094972435E1
 1.512500000000000E9     1.283592218236737E-1   -1.029525797498844E2     9.488706189850227E-1    1.679680576280334E2     9.500155968040885E-1    1.680283236479733E2     1.289323761136329E-1   -9.229391856799386E1
 1.513750000000000E9     1.275468775551372E-1   -1.031109222967690E2     9.488039879894276E-1    1.677935949058940E2     9.499241222794722E-1    1.678527856086912E2     1.286234314461912E-1   -9.231994320711404E1
 1.515000000000000E9     1.275117358074636E-1   -1.034046183816491E2     9.485088308947789E-1    1.675942094695997E2     9.499514132781868E-1    1.676553849631705E2     1.280626705297109E-1   -9.247034374330056E1
 1.516250000000000E9     1.270583302435740E-1   -1.034714495681941E2     9.482750325457084E-1    1.674314483027989E2     9.498645824447761E-1    1.675019579773418E2     1.279717645444685E-1   -9.252525719596923E1
 1.517500000000000E9     1.264997865402991E-1   -1.038357298140564E2     9.486941047569284E-1    1.672527620495563E2     9.498395598548656E-1    1.673206808007113E2     1.274679699580678E-1   -9.264596937388859E1
 1.518750000000000E9     1.262959088386160E-1   -1.039480850686423E2     9.486702840824720E-1    1.670752359017022E2     9.496909788822530E-1    1.671564795736932E2     1.272010763555760E-1   -9.274936706688933E1
 1.520000000000000E9     1.260176554001201E-1   -1.041274907246299E2     9.487752288316494E-1    1.668857190237807E2     9.495196450611282E-1    1.669654317023732E2     1.268837938229239E-1   -9.283683332050860E1
 1.521250000000000E9     1.257131530288960E-1   -1.043359332287846E2     9.485726894615724E-1    1.667221853372448E2     9.497307193677026E-1    1.667910892720265E2     1.267061852998527E-1   -9.308853208229706E1
 1.522500000000000E9     1.253326432370787E-1   -1.044001860272213E2     9.486402061565495E-1    1.665321932488615E2     9.495951150945038E-1    1.666095488597142E2     1.264029235204510E-1   -9.313241110810856E1
 1.523750000000000E9     1.249554597702598E-1   -1.046069854536832E2     9.485581358202029E-1    1.663772117882919E2     9.497145161401251E-1    1.664244673850279E2     1.260131136580168E-1   -9.313111416957373E1
 1.525000000000000E9     1.247266080322456E-1   -1.049737272233115E2     9.485560348722746E-1    1.661976369931996E2     9.496835510909181E-1    1.662633294453640E2     1.257087741608849E-1   -9.324591568326831E1
 1.526250000000000E9     1.243189589010685E-1   -1.051072141570767E2     9.484318935600163E-1    1.659960654092885E2     9.494533159404134E-1    1.660811379569284E2     1.252549097499391E-1   -9.341915929011350E1
 1.527500000000000E9     1.240298083071162E-1   -1.051727634025633E2     9.486939328789635E-1    1.658193473361721E2     9.494469079480612E-1    1.659042550174745E2     1.249996699230501E-1   -9.356611266284830E1
 1.528750000000000E9     1.239019711240433E-1   -1.055474841175798E2     9.487788603312806E-1    1.656385810842191E2     9.496432681268706E-1    1.657276238692170E2     1.247913406155058E-1   -9.363123157723790E1
 1.530000000000000E9     1.234181499669592E-1   -1.057292446820962E2     9.486337281537834E-1    1.654590310064663E2     9.494470929973609E-1    1.655448345549759E2     1.244972405952506E-1   -9.375051280001253E1
 1.531250000000000E9     1.230144971933719E-1   -1.058744444609156E2     9.486459039584783E-1    1.652833327621805E2     9.492058411073994E-1    1.653807232522036E2     1.239831022488252E-1   -9.391372735337600E1
 1.532500000000000E9     1.226233090400684E-1   -1.059274150457828E2     9.484431241846309E-1    1.651061175686833E2     9.494903436541741E-1    1.651980751021333E2     1.237938019857096E-1   -9.408061483092212E1
 1.533750000000000E9     1.223133487718573E-1   -1.062175069003589E2     9.486185931663812E-1    1.649256010452138E2     9.497126002698517E-1    1.650130380426154E2     1.231306381334122E-1   -9.413500297906300E1
 1.535000000000000E9     1.218839107355658E-1   -1.062967925263168E2     9.484993523175788E-1    1.647387928867740E2     9.496223500212757E-1    1.648334937902649E2     1.228805523750017E-1   -9.424409260506253E1
 1.536250000000000E9     1.217055387215811E-1   -1.065419266357097E2     9.483936458044797E-1    1.645702872154682E2     9.492475786528013E-1    1.646618838919505E2     1.225403237073764E-1   -9.431317152690717E1
 1.537500000000000E9     1.211875724894126E-1   -1.067597978992501E2     9.482045366175649E-1    1.643825185786336E2     9.495038032736295E-1    1.644919752899464E2     1.221920104809008E-1   -9.449326372331728E1
 1.538750000000000E9     1.208302517859408E-1   -1.068827819500921E2     9.483322958619677E-1    1.642053606844064E2     9.493245340328508E-1    1.642987716023627E2     1.218638449521042E-1   -9.458208674424249E1
 1.540000000000000E9     1.204896029726272E-1   -1.071424115589182E2     9.484984719954718E-1    1.640277205512373E2     9.494014346538814E-1    1.641221670044149E2     1.214187130160929E-1   -9.468093056800996E1
 1.541250000000000E9     1.203027761493515E-1   -1.073663095014916E2     9.482474152336117E-1    1.638484724709698E2     9.492798514877357E-1    1.639395995800647E2     1.211358182943944E-1   -9.484479239337422E1
 1.542500000000000E9     1.196300787429257E-1   -1.074079076002353E2     9.483386875788066E-1    1.636783491666351E2     9.493317747704111E-1    1.637677950718790E2     1.208350185668332E-1   -9.491944649016375E1
 1.543750000000000E9     1.193656076855071E-1   -1.076059456900705E2     9.485365801021699E-1    1.634842538419291E2     9.491669195122677E-1    1.635800998885906E2     1.205419786823800E-1   -9.490350480271938E1
 1.545000000000000E9     1.188016499534364E-1   -1.078458017130446E2     9.481976121031849E-1    1.633111088193141E2     9.493046959766720E-1    1.634114516927809E2     1.203858815486453E-1   -9.505086836581305E1
 1.546250000000000E9     1.187896094861677E-1   -1.080189650536077E2     9.482123579587423E-1    1.631281072479628E2     9.492056369566854E-1    1.632320469956830E2     1.198301922034491E-1   -9.511332952506031E1
 1.547500000000000E9     1.183763615910992E-1   -1.082168802590318E2     9.483996342497431E-1    1.629506742792771E2     9.492957353608565E-1    1.630441291116898E2     1.193953336091357E-1   -9.534737220899396E1
 1.548750000000000E9     1.177717225889268E-1   -1.083293085620856E2     9.481262890369233E-1    1.627686328659281E2     9.492584342621436E-1    1.628555340925448E2     1.190473447328066E-1   -9.550140222207088E1
 1.550000000000000E9     1.173722702226964E-1   -1.085967115469025E2     9.484427188395126E-1    1.625870127192972E2     9.493747146491860E-1    1.626772272154827E2     1.189643802725700E-1   -9.561327294603380E1
 1.551250000000000E9     1.172877464797449E-1   -1.087530135778457E2     9.483191266997216E-1    1.624031892744134E2     9.490471309202823E-1    1.624987120644202E2     1.184669054815932E-1   -9.573969019407639E1
 1.552500000000000E9     1.168355777493856E-1   -1.089545875629203E2     9.480306064189024E-1    1.622406795728359E2     9.489609305757293E-1    1.623311461471573E2     1.183393421235119E-1   -9.576365303871823E1
 1.553750000000000E9     1.164823334747841E-1   -1.091268847237652E2     9.480849903946361E-1    1.620494628321684E2     9.489694737680833E-1    1.621420119949440E2     1.177502170151245E-1   -9.597129876151621E1
 1.555000000000000E9     1.160129053912290E-1   -1.094106778703015E2     9.481446611516114E-1    1.618622010846015E2     9.492213569728838E-1    1.619533737633007E2     1.173400563460767E-1   -9.601075331956585E1
 1.556250000000000E9     1.154056413419753E-1   -1.095343248088049E2     9.481888677921229E-1    1.616786785816875E2     9.491365682709700E-1    1.617609297732890E2     1.170049545590467E-1   -9.613144352750943E1
 1.557500000000000E9     1.152605365775782E-1   -1.097977787617604E2     9.481257519987589E-1    1.614923062184546E2     9.492821071655547E-1    1.615756321340382E2     1.167202089521959E-1   -9.642589137135430E1
 1.558750000000000E9     1.147492814089916E-1   -1.100727062327917E2     9.481285516344992E-1    1.613155574099995E2     9.491514739227954E-1    1.614024500742835E2     1.164576965559299E-1   -9.628292540611837E1
 1.560000000000000E9     1.143294033379803E-1   -1.100523221158117E2     9.479419442475043E-1    1.611387396054840E2     9.490755601046046E-1    1.612275887866525E2     1.159989618461257E-1   -9.659766648011403E1
 1.561250000000000E9     1.140594866247877E-1   -1.103302280238854E2     9.479392054167654E-1    1.609558236786407E2     9.490354968012967E-1    1.610314496043174E2     1.155259995141459E-1   -9.667393543353479E1
 1.562500000000000E9     1.137318546411551E-1   -1.104234001849388E2     9.480784710886708E-1    1.607685589268624E2     9.487863319177546E-1    1.608684968929466E2     1.154970185444719E-1   -9.687020865985407E1
 1.563750000000000E9     1.131808791886799E-1   -1.107170832732828E2     9.479483390181008E-1    1.605807090939198E2     9.491657010842823E-1    1.606884757301869E2     1.151712415651624E-1   -9.691219354197023E1
 1.565000000000000E9     1.125245630664824E-1   -1.109080730604314E2     9.479714817956492E-1    1.604165625288230E2     9.488556853138070E-1    1.605075910007031E2     1.145528220508435E-1   -9.704103681207398E1
 1.566250000000000E9     1.123918695160550E-1   -1.110940214259611E2     9.479963518228057E-1    1.602248823443230E2     9.490227326823910E-1    1.603356915527895E2     1.141306633819935E-1   -9.725148942375723E1
 1.567500000000000E9     1.118591595182600E-1   -1.112310063909935E2     9.480115956005872E-1    1.600508842530140E2     9.488308456942659E-1    1.601512289278748E2     1.135357795719070E-1   -9.708404120116045E1
 1.568750000000000E9     1.115075430486068E-1   -1.114346388595888E2     9.478600198075211E-1    1.598605833830285E2     9.487510677135969E-1    1.599705275644547E2     1.131707057338507E-1   -9.726795902886032E1
 1.570000000000000E9     1.113101199681285E-1   -1.116413112380355E2     9.478932023123319E-1    1.596776334917401E2     9.486495646634721E-1    1.597760618245343E2     1.126271986258776E-1   -9.739064140256531E1
 1.571250000000000E9     1.107272037459164E-1   -1.117937255086606E2     9.479911115081313E-1    1.595008959373450E2     9.488415145472887E-1    1.595960015590486E2     1.122510754104312E-1   -9.743722551811322E1
 1.572500000000000E9     1.102034083697357E-1   -1.120369007209786E2     9.480008659889874E-1    1.593123489123721E2     9.485785044497494E-1    1.594219572963375E2     1.118056297795085E-1   -9.746873205013436E1
 1.573750000000000E9     1.098957435021731E-1   -1.120661433509873E2     9.480118984733420E-1    1.591334389701976E2     9.488885736928323E-1    1.592284811280315E2     1.114069409275267E-1   -9.757063483246473E1
 1.575000000000000E9     1.093244913911982E-1   -1.122594039247384E2     9.478372777713029E-1    1.589535841276379E2     9.486667217488109E-1    1.590453464184173E2     1.110698666206091E-1   -9.774616179490100E1
 1.576250000000000E9     1.088220486820596E-1   -1.125245145398195E2     9.477673258995755E-1    1.587587228346661E2     9.488265966621322E-1    1.588620807142167E2     1.108846776718520E-1   -9.775614200214385E1
 1.577500000000000E9     1.086893665782168E-1   -1.126456771150800E2     9.480284878666962E-1    1.585840007085003E2     9.484133899525786E-1    1.586856384955743E2     1.103677537350828E-1   -9.787382984010991E1
 1.578750000000000E9     1.079870921730060E-1   -1.128547586255183E2     9.481013229050774E-1    1.583886909502029E2     9.487116923524956E-1    1.585154625104553E2     1.100413165665964E-1   -9.792868409527370E1
 1.580000000000000E9     1.076070031595207E-1   -1.130573089147048E2     9.479747074297675E-1    1.582222533472723E2     9.487065045803347E-1    1.583123800966938E2     1.095474384748752E-1   -9.803732005018564E1
 1.581250000000000E9     1.073195445541605E-1   -1.133116391352677E2     9.479125600767671E-1    1.580279363742172E2     9.487545220588268E-1    1.581392893434253E2     1.090615283971354E-1   -9.819604573319839E1
 1.582500000000000E9     1.068562075545772E-1   -1.135095602176584E2     9.478607276654148E-1    1.578474025212205E2     9.485330334005384E-1    1.579516605648820E2     1.088602016343941E-1   -9.816994969242405E1
 1.583750000000000E9     1.065313363643625E-1   -1.136749398237049E2     9.477723303169000E-1    1.576578126218554E2     9.485917852757857E-1    1.577638047705763E2     1.082302717152502E-1   -9.833651047189083E1
 1.585000000000000E9     1.059498534581303E-1   -1.137988437148032E2     9.478725134140495E-1    1.574825519165855E2     9.484771246793794E-1    1.575780346529286E2     1.079278687128429E-1   -9.830101194949782E1
 1.586250000000000E9     1.057591618608145E-1   -1.139555694081104E2     9.478272350732486E-1    1.572815394088099E2     9.487075117886661E-1    1.574022038440862E2     1.073962019431634E-1   -9.847720688244192E1
 1.587500000000000E9     1.050158730713261E-1   -1.141957486454793E2     9.479412423928969E-1    1.571218771500836E2     9.485698975549037E-1    1.572070335818589E2     1.070525405917141E-1   -9.862515262647807E1
 1.588750000000000E9     1.046824415395139E-1   -1.142122172829705E2     9.477417499331348E-1    1.569240885330930E2     9.484493818906878E-1    1.570271578771802E2     1.066345221593826E-1   -9.865762497631358E1
 1.590000000000000E9     1.043325696272463E-1   -1.145652154559518E2     9.475690335998954E-1    1.567240190219098E2     9.483976887140256E-1    1.568280194283244E2     1.062015495564066E-1   -9.868498314275533E1
 1.591250000000000E9     1.039190929983242E-1   -1.147217488848609E2     9.475485204617022E-1    1.565460000340300E2     9.484770351175992E-1    1.566435466244059E2     1.057524680988539E-1   -9.882231676033452E1
 1.592500000000000E9     1.031762244875586E-1   -1.149522550469072E2     9.477341271608959E-1    1.563784721696345E2     9.482908418701996E-1    1.564539896924973E2     1.053427404406131E-1   -9.889858944946550E1
 1.593750000000000E9     1.028562562928588E-1   -1.150032248144471E2     9.477662103272139E-1    1.561866495283869E2     9.483755429174898E-1    1.562966533685687E2     1.049909406008484E-1   -9.906339585228700E1
 1.595000000000000E9     1.024625437680392E-1   -1.152809410043358E2     9.476845418397319E-1    1.560000276450747E2     9.484500467118014E-1    1.560931523703493E2     1.045719683651282E-1   -9.919191893636746E1
 1.596250000000000E9     1.020028370091879E-1   -1.154783657393803E2     9.477083788609337E-1    1.558121267879215E2     9.485552764643734E-1    1.559212323568472E2     1.039903052774924E-1   -9.902128374276857E1
 1.597500000000000E9     1.015447317272969E-1   -1.155964264074054E2     9.474454354267950E-1    1.556277578004106E2     9.482873948888549E-1    1.557252855277765E2     1.035649283944173E-1   -9.916416453094079E1
 1.598750000000000E9     1.011288260756099E-1   -1.157606182879859E2     9.473622488081049E-1    1.554373446597418E2     9.482406591836482E-1    1.555358297036425E2     1.031013164503514E-1   -9.920286035993611E1
 1.600000000000000E9     1.008206668053947E-1   -1.160579168344229E2     9.473973860383041E-1    1.552385387533480E2     9.482545052905398E-1    1.553554946779042E2     1.027689518000578E-1   -9.913271438076498E1
 1.601250000000000E9     1.002237171953607E-1   -1.162058163287811E2     9.473392626511865E-1    1.550598157937538E2     9.483541497895371E-1    1.551595699240276E2     1.024022741970160E-1   -9.929029292597694E1
 1.602500000000000E9     9.966568254013447E-2   -1.164031665300199E2     9.473787521250215E-1    1.548700777163505E2     9.481656728861908E-1    1.549810327190484E2     1.018765769800791E-1   -9.943653536019848E1
 1.603750000000000E9     9.942128636521000E-2   -1.165159529465346E2     9.473732526138753E-1    1.546886470480297E2     9.481242127412859E-1    1.548033147962091E2     1.015221479474231E-1   -9.953573927626012E1
 1.605000000000000E9     9.881633360388248E-2   -1.167854288252594E2     9.476147874643159E-1    1.544945886442152E2     9.481036386272200E-1    1.545862958249731E2     1.008721605009683E-1   -9.956757839737212E1
 1.606250000000000E9     9.835575010661199E-2   -1.170020138838734E2     9.473650720598267E-1    1.543105655785937E2     9.481686888776666E-1    1.544034071922279E2     1.005519371234406E-1   -9.972028600777762E1
 1.607500000000000E9     9.785922624214126E-2   -1.171570941919396E2     9.474840407697163E-1    1.541124379609836E2     9.480734703474283E-1    1.542186857443944E2     1.002300939849956E-1   -9.962801979321276E1
 1.608750000000000E9     9.710045463843478E-2   -1.173778432939317E2     9.474867190478073E-1    1.539312233661477E2     9.482444391162395E-1    1.540370641147443E2     9.968476272583554E-2   -9.972845837466174E1
 1.610000000000000E9     9.683812239054571E-2   -1.176000246125421E2     9.473015105961802E-1    1.537629757456290E2     9.480262417657822E-1    1.538512604567043E2     9.925346717482962E-2   -9.979472945684731E1
 1.611250000000000E9     9.617564923125528E-2   -1.175909852596283E2     9.472703119011746E-1    1.535573400711422E2     9.478944354504449E-1    1.536493297966348E2     9.887742731111593E-2   -9.980694589725371E1
 1.612500000000000E9     9.565497586280344E-2   -1.179425813853432E2     9.472160221569615E-1    1.533889973517716E2     9.479153390489198E-1    1.534821109951453E2     9.849511654586160E-2   -9.998301544101255E1
 1.613750000000000E9     9.543931051968836E-2   -1.180328078486857E2     9.471656439778295E-1    1.531782501718656E2     9.477883804369692E-1    1.532888865224839E2     9.815521090241104E-2   -9.999690270276731E1
 1.615000000000000E9     9.471891446349862E-2   -1.182789214470404E2     9.470924846062867E-1    1.529999782504475E2     9.478667931272070E-1    1.530979170504135E2     9.753556890791926E-2   -1.000835809305289E2
 1.616250000000000E9     9.449436164768953E-2   -1.187204789042780E2     9.469928072798154E-1    1.528059172210291E2     9.479264135612351E-1    1.529271461820551E2     9.717262626984813E-2   -1.001459881184142E2
 1.617500000000000E9     9.400268886401242E-2   -1.187058286850460E2     9.470864046183337E-1    1.526309357032910E2     9.476633105126762E-1    1.527351010352171E2     9.639667069926969E-2   -1.001043856397556E2
 1.618750000000000E9     9.337921272434838E-2   -1.189261560663004E2     9.470969080164325E-1    1.524257353723256E2     9.476458984532939E-1    1.525348212230587E2     9.617796251193052E-2   -1.002595787975110E2
 1.620000000000000E9     9.281841184361905E-2   -1.190936745072013E2     9.468377159592593E-1    1.522511146550787E2     9.476420062124767E-1    1.523555573789483E2     9.554262562663167E-2   -1.002016276823156E2
 1.621250000000000E9     9.231740082226979E-2   -1.192987525440079E2     9.468114806592607E-1    1.520584759290765E2     9.477314459300898E-1    1.521488201037276E2     9.508411194286991E-2   -1.001263907329911E2
 1.622500000000000E9     9.197628276241318E-2   -1.196575355545434E2     9.469671991530175E-1    1.518688448161742E2     9.478013011849856E-1    1.519686513742987E2     9.476226359292689E-2   -1.002897133826551E2
 1.623750000000000E9     9.097563393088552E-2   -1.196347600086156E2     9.469477898245406E-1    1.516732592667231E2     9.476933259430493E-1    1.517756941415437E2     9.444559358164566E-2   -1.003424090210784E2
 1.625000000000000E9     9.058513435142268E-2   -1.198784073497712E2     9.466881084503916E-1    1.514788608573120E2     9.476752696154528E-1    1.515871137020683E2     9.385517210185930E-2   -1.004063637526027E2
 1.626250000000000E9     9.041558994088310E-2   -1.199377895634676E2     9.467435511894972E-1    1.513016956202591E2     9.476395619115219E-1    1.514066665244693E2     9.326864072905548E-2   -1.002744806966973E2
 1.627500000000000E9     8.963358375756637E-2   -1.202699975878595E2     9.466731425256854E-1    1.511072188428755E2     9.473290858116867E-1    1.512017412666200E2     9.297051796551926E-2   -1.002701681618815E2
 1.628750000000000E9     8.935210947947185E-2   -1.205053695292753E2     9.468269984358980E-1    1.509207014209091E2     9.475492798441795E-1    1.510240790861934E2     9.228606543789925E-2   -1.004728824070053E2
 1.630000000000000E9     8.853646837421598E-2   -1.204898548841662E2     9.469523904339270E-1    1.507101385082284E2     9.474247513506894E-1    1.508167962272585E2     9.219861942932893E-2   -1.003697061714556E2
 1.631250000000000E9     8.818507205644585E-2   -1.209379379272081E2     9.467577551794748E-1    1.505524593482685E2     9.475717595777544E-1    1.506402033391827E2     9.185858680146167E-2   -1.004834234128697E2
 1.632500000000000E9     8.738580989050765E-2   -1.209823898821164E2     9.466683910833328E-1    1.503363004259934E2     9.476222984944589E-1    1.504583902713747E2     9.135745395096063E-2   -1.003992667811676E2
 1.633750000000000E9     8.684966392482529E-2   -1.212622106276750E2     9.467050833946854E-1    1.501647297422551E2     9.476573476141540E-1    1.502678764070322E2     9.071255837185445E-2   -1.005673872591497E2
 1.635000000000000E9     8.619411867123866E-2   -1.214703012002150E2     9.465114504782577E-1    1.499608792090179E2     9.474829831252283E-1    1.500735086841572E2     9.046027067345135E-2   -1.005937268187680E2
 1.636250000000000E9     8.582738403075381E-2   -1.216676881149897E2     9.465882195744512E-1    1.497942177713730E2     9.474555967028024E-1    1.498745029701216E2     9.000908514908923E-2   -1.005801897774959E2
 1.637500000000000E9     8.531761305098348E-2   -1.218352535598661E2     9.467776635463551E-1    1.495813147538155E2     9.475922076007847E-1    1.496705276637389E2     8.963750889230659E-2   -1.006055994438211E2
 1.638750000000000E9     8.473412420512311E-2   -1.220785053104863E2     9.467983497822255E-1    1.493905766756741E2     9.474236506492992E-1    1.495030589904673E2     8.901961672006045E-2   -1.005478682630592E2
 1.640000000000000E9     8.402707867388715E-2   -1.221201884609536E2     9.464576987241555E-1    1.491978517188777E2     9.474840468456815E-1    1.493061891049078E2     8.846791292731346E-2   -1.006643378820943E2
 1.641250000000000E9     8.362914034705285E-2   -1.223979602007233E2     9.464549978906251E-1    1.490020827118036E2     9.474525144991250E-1    1.491062887953403E2     8.787776209038850E-2   -1.007248604903975E2
 1.642500000000000E9     8.296875370170753E-2   -1.224066139749095E2     9.464797894468628E-1    1.487978518234981E2     9.474601586944207E-1    1.489242672113230E2     8.759009204361420E-2   -1.006416024577706E2
 1.643750000000000E9     8.241105245066858E-2   -1.227372269327937E2     9.463983577727815E-1    1.486216580611780E2     9.473209031865391E-1    1.487312039894200E2     8.720790351356829E-2   -1.007235075501907E2
 1.645000000000000E9     8.173719026818879E-2   -1.229431276480749E2     9.464082546204942E-1    1.484301692572919E2     9.472603236511318E-1    1.485195214094315E2     8.662576330819474E-2   -1.006291296699699E2
 1.646250000000000E9     8.107672472296562E-2   -1.233377999080870E2     9.464164703818762E-1    1.482297473487734E2     9.473418542313634E-1    1.483364296289382E2     8.594141260972717E-2   -1.005143354931529E2
 1.647500000000000E9     8.070603738092126E-2   -1.234064170422271E2     9.462071756734014E-1    1.480524789949372E2     9.471135960452236E-1    1.481417905668713E2     8.527487563258374E-2   -1.007091792513688E2
 1.648750000000000E9     8.008551337542279E-2   -1.234295992335385E2     9.462787725512694E-1    1.478538888227994E2     9.470337469027015E-1    1.479616073345508E2     8.475426338630736E-2   -1.008204197786287E2
 1.650000000000000E9     7.937546458652980E-2   -1.237390536894345E2     9.463690935861974E-1    1.476604911271119E2     9.470228941166694E-1    1.477505923971382E2     8.435043131319846E-2   -1.006546996069381E2
 1.651250000000000E9     7.870867299302958E-2   -1.239990193345513E2     9.464575902407626E-1    1.474617040951360E2     9.470219564314878E-1    1.475656653304800E2     8.376306415191299E-2   -1.007673344096466E2
 1.652500000000000E9     7.819337477422006E-2   -1.241402625386828E2     9.461790347483658E-1    1.472720046528540E2     9.469435768985075E-1    1.473579851590631E2     8.317934616117929E-2   -1.006037751783127E2
 1.653750000000000E9     7.762607456847953E-2   -1.242286566532875E2     9.459944021911136E-1    1.470704487327086E2     9.472687501960033E-1    1.471660963641195E2     8.277633063864769E-2   -1.006225085670574E2
 1.655000000000000E9     7.709953516110178E-2   -1.245204076649068E2     9.458887052868880E-1    1.468644513515671E2     9.469829888770324E-1    1.469814392177003E2     8.237392456699277E-2   -1.006130656861733E2
 1.656250000000000E9     7.652702477199937E-2   -1.246427184785401E2     9.459578673244388E-1    1.466997464385586E2     9.468620569768720E-1    1.467979755933817E2     8.167730891812046E-2   -1.006788637101625E2
 1.657500000000000E9     7.595825799579300E-2   -1.248895410792092E2     9.459244341342756E-1    1.464987266666387E2     9.469555666106687E-1    1.466003677646950E2     8.148095492612918E-2   -1.005614046655018E2
 1.658750000000000E9     7.498181785953871E-2   -1.250316086117864E2     9.458934797020776E-1    1.463095582235225E2     9.468352235991869E-1    1.464083414102894E2     8.068857491560572E-2   -1.005513015174089E2
 1.660000000000000E9     7.452776225684360E-2   -1.252400144491657E2     9.459006803215594E-1    1.460910068307492E2     9.470555859112335E-1    1.462157260140752E2     8.036191789607966E-2   -1.006506806746904E2
 1.661250000000000E9     7.398306611993968E-2   -1.252736002823595E2     9.457089598721170E-1    1.459209034618292E2     9.467365325590411E-1    1.460087475093926E2     7.989802032300948E-2   -1.005267935655517E2
 1.662500000000000E9     7.336866025074187E-2   -1.254807965880085E2     9.458574443382013E-1    1.457075161477055E2     9.467232126403814E-1    1.458114770112361E2     7.924206281915126E-2   -1.005550743229083E2
 1.663750000000000E9     7.276811063029201E-2   -1.256487948640463E2     9.459176143812932E-1    1.455301080080701E2     9.469994937720720E-1    1.456045433481276E2     7.879424605412849E-2   -1.005185895356187E2
 1.665000000000000E9     7.210772733475770E-2   -1.258854300736785E2     9.455259221271474E-1    1.453349914646759E2     9.468269707446846E-1    1.454182644326428E2     7.808251038380086E-2   -1.003529405179478E2
 1.666250000000000E9     7.146070088729038E-2   -1.261957424015136E2     9.456435009409027E-1    1.451405012196428E2     9.466685204649694E-1    1.452213273325030E2     7.778774616005982E-2   -1.003508665203380E2
 1.667500000000000E9     7.102236100047143E-2   -1.262312026479358E2     9.455878596320417E-1    1.449279224978796E2     9.469866988361948E-1    1.450089920291753E2     7.720079433762751E-2   -1.005503930902817E2
 1.668750000000000E9     7.028126815101592E-2   -1.263603053684967E2     9.457037051069814E-1    1.447326447739550E2     9.468025897668823E-1    1.448142559708743E2     7.662116978780181E-2   -1.003840406013753E2
 1.670000000000000E9     6.965183041319935E-2   -1.266064517435705E2     9.453436028183443E-1    1.445305795579196E2     9.467780498199173E-1    1.446168096236674E2     7.598043833326457E-2   -1.002845032341552E2
 1.671250000000000E9     6.897011834801230E-2   -1.267984240561909E2     9.454083623737656E-1    1.443383429573754E2     9.468256995785559E-1    1.444228080855523E2     7.550549525923593E-2   -1.003189392181224E2
 1.672500000000000E9     6.832470425758978E-2   -1.271085415347063E2     9.453271784715469E-1    1.441465918360389E2     9.464206574132271E-1    1.442136260748986E2     7.497056502235759E-2   -1.002857797613698E2
 1.673750000000000E9     6.759966974701226E-2   -1.272359901445446E2     9.452172804020039E-1    1.439554799074787E2     9.465426735288716E-1    1.440142948242324E2     7.443266515090841E-2   -1.002390091620377E2
 1.675000000000000E9     6.719680229659801E-2   -1.272701001082880E2     9.452291603122976E-1    1.437490652680971E2     9.465290694358414E-1    1.438143190741157E2     7.372704299834219E-2   -1.002618551323071E2
 1.676250000000000E9     6.638864705956170E-2   -1.276038670474207E2     9.452579590355970E-1    1.435414162656668E2     9.466240414235225E-1    1.436052039720467E2     7.318330749203547E-2   -1.003238241234752E2
 1.677500000000000E9     6.593266590777036E-2   -1.277788507146407E2     9.454124456342252E-1    1.433603391300872E2     9.465465581424258E-1    1.434127823177256E2     7.249573734338925E-2   -1.001728588786228E2
 1.678750000000000E9     6.510925271036194E-2   -1.277615178078295E2     9.450026606252154E-1    1.431630620267287E2     9.468891491853163E-1    1.431981224521541E2     7.178924551874494E-2   -1.001819528608132E2
 1.680000000000000E9     6.449758104803742E-2   -1.281360754109582E2     9.450508023959219E-1    1.429576547612450E2     9.465396744509446E-1    1.429825359056138E2     7.115392065580226E-2   -9.996649563216481E1
 1.681250000000000E9     6.353564832530076E-2   -1.281479561156065E2     9.450195767133283E-1    1.427704358730737E2     9.461406234023227E-1    1.427739815967495E2     7.048276321113206E-2   -1.000944335265322E2
 1.682500000000000E9     6.310204808070934E-2   -1.284255989581215E2     9.449513991577940E-1    1.425599660870479E2     9.460324374660721E-1    1.425734593972135E2     6.961431988182330E-2   -1.000955539240491E2
 1.683750000000000E9     6.238895495618552E-2   -1.287352772354931E2     9.450458737014409E-1    1.423684113739035E2     9.456969351958239E-1    1.423673985490484E2     6.894539893982847E-2   -9.997921387148760E1
 1.685000000000000E9     6.176890042446464E-2   -1.287847471159518E2     9.447910424159827E-1    1.421704007883812E2     9.456785386125320E-1    1.421510427963468E2     6.811913435565595E-2   -9.976019236793252E1
 1.686250000000000E9     6.092178846836303E-2   -1.289670528459706E2     9.448628160531135E-1    1.419885910765426E2     9.454449265913705E-1    1.419633263171751E2     6.737497518785471E-2   -9.964270393759810E1
 1.687500000000000E9     6.033996563771026E-2   -1.292518233984332E2     9.448434865576126E-1    1.417752198111147E2     9.452980601878938E-1    1.417482129470888E2     6.696193638937022E-2   -9.945537784749121E1
 1.688750000000000E9     5.961584881407443E-2   -1.292011250899303E2     9.444862254998067E-1    1.415642242844164E2     9.454063284888239E-1    1.415460818986570E2     6.607987174245221E-2   -9.922614714729438E1
 1.690000000000000E9     5.873947696155550E-2   -1.294177793946318E2     9.446056166965425E-1    1.413564300381199E2     9.450444314528911E-1    1.413517031623947E2     6.558185118128701E-2   -9.910556280236865E1
 1.691250000000000E9     5.824413410666859E-2   -1.295793128581308E2     9.446246718351405E-1    1.411705694102506E2     9.450768423111318E-1    1.411553548304229E2     6.513459769761393E-2   -9.909333455878159E1
 1.692500000000000E9     5.751386696647191E-2   -1.297394433356140E2     9.444353083524814E-1    1.409700202498834E2     9.450252034776249E-1    1.409428418803200E2     6.434537393134174E-2   -9.875190175066723E1
 1.693750000000000E9     5.664968212562023E-2   -1.298254778547632E2     9.444253965005788E-1    1.407739040712902E2     9.446547631374419E-1    1.407362252945742E2     6.368492065108664E-2   -9.843812735959116E1
 1.695000000000000E9     5.599207827829487E-2   -1.301283780389061E2     9.444982336066261E-1    1.405645860530051E2     9.448070163736524E-1    1.405644475651823E2     6.332679208248609E-2   -9.835588583866131E1
 1.696250000000000E9     5.519847464571480E-2   -1.303692661463212E2     9.443501588692071E-1    1.403602558069489E2     9.445742483677054E-1    1.403604025763161E2     6.272705777430411E-2   -9.813523206889990E1
 1.697500000000000E9     5.453876286450059E-2   -1.304129603161469E2     9.443442006834983E-1    1.401722933070919E2     9.448791757317739E-1    1.401256577328502E2     6.206355266792570E-2   -9.790212045341922E1
 1.698750000000000E9     5.370596148390293E-2   -1.305576227570375E2     9.443337405745763E-1    1.399585463286827E2     9.446270819404458E-1    1.399311397385766E2     6.137527923150772E-2   -9.744392320482613E1
 1.700000000000000E9     5.332731419320253E-2   -1.308200920641535E2     9.442794911759662E-1    1.397629231155064E2     9.446082463432541E-1    1.397388165028005E2     6.086665026878142E-2   -9.728288500294229E1
 1.701250000000000E9     5.241333471052473E-2   -1.308342083046435E2     9.439147345358961E-1    1.395632186684907E2     9.440976778115489E-1    1.395362789908656E2     6.016737927437248E-2   -9.706116835837325E1
 1.702500000000000E9     5.167399196168134E-2   -1.313141238719247E2     9.441288674478336E-1    1.393505986477409E2     9.442461795620236E-1    1.393292565337062E2     5.989639287341203E-2   -9.653392619227564E1
 1.703750000000000E9     5.110359033698174E-2   -1.311659423993672E2     9.442102434824327E-1    1.391568069382423E2     9.439805939908937E-1    1.391315374655241E2     5.940907120947298E-2   -9.651208108617729E1
 1.705000000000000E9     5.026960267181076E-2   -1.312820094114382E2     9.438746711426436E-1    1.389514031851019E2     9.441002070133210E-1    1.389247785292926E2     5.846478155916861E-2   -9.600286292436411E1
 1.706250000000000E9     4.964983880981303E-2   -1.313688951773815E2     9.438348681795133E-1    1.387393744185808E2     9.442012397657368E-1    1.387222623773974E2     5.799431238218666E-2   -9.589896291837195E1
 1.707500000000000E9     4.890259259587638E-2   -1.318642151324437E2     9.437884308542956E-1    1.385475792187373E2     9.439005878487591E-1    1.385303000805880E2     5.757318156675358E-2   -9.555554400338411E1
 1.708750000000000E9     4.784819906680088E-2   -1.319085845258781E2     9.437083839088652E-1    1.383303386882878E2     9.438079798545383E-1    1.383173937721899E2     5.694994724676967E-2   -9.516817715405118E1
 1.710000000000000E9     4.734225094759346E-2   -1.318293167108028E2     9.436575610339846E-1    1.381402758471913E2     9.437483567507134E-1    1.381039512122474E2     5.644988982205917E-2   -9.488047263609108E1
 1.711250000000000E9     4.654818359297559E-2   -1.320683734814259E2     9.435299259015345E-1    1.379223820254057E2     9.436096654258157E-1    1.379071222655041E2     5.574142105444110E-2   -9.451104249661913E1
 1.712500000000000E9     4.560442436666770E-2   -1.322029277415920E2     9.435465591905412E-1    1.377122067384953E2     9.434235523861444E-1    1.377030758932033E2     5.518243016947491E-2   -9.402653383898098E1
 1.713750000000000E9     4.507069960841718E-2   -1.324151425089395E2     9.433583098179040E-1    1.375314228015675E2     9.433837854057479E-1    1.375114135108957E2     5.481757767523734E-2   -9.351909265541197E1
 1.715000000000000E9     4.422493067670076E-2   -1.326078043214809E2     9.436487390300020E-1    1.373008016935985E2     9.434408184217232E-1    1.372880762519605E2     5.413632320578948E-2   -9.327375086624134E1
 1.716250000000000E9     4.328960993736615E-2   -1.325767703099187E2     9.432236649515258E-1    1.371130122294389E2     9.435236603160159E-1    1.370927901109632E2     5.345630027250935E-2   -9.271564050798708E1
 1.717500000000000E9     4.270031292708970E-2   -1.329675599430828E2     9.431577207556678E-1    1.368922072647434E2     9.432787885385306E-1    1.368804193317994E2     5.304867475593882E-2   -9.225685821050247E1
 1.718750000000000E9     4.183828814158840E-2   -1.329817736035327E2     9.431601778735553E-1    1.366766488803213E2     9.432396413555966E-1    1.366837166104005E2     5.253482476538513E-2   -9.178281391477290E1
 1.720000000000000E9     4.108164583588311E-2   -1.330996487052679E2     9.431792398797310E-1    1.364848461439329E2     9.431794157552528E-1    1.364748458341913E2     5.208648838735707E-2   -9.139544778192725E1
 1.721250000000000E9     4.018497359833405E-2   -1.333159435020143E2     9.429875628577556E-1    1.362810966517737E2     9.429868603731133E-1    1.362655130552808E2     5.134072528695525E-2   -9.089804651625235E1
 1.722500000000000E9     3.941287015124915E-2   -1.332644522792535E2     9.430175580435634E-1    1.360612953932061E2     9.427726097478468E-1    1.360561407819953E2     5.099598980478191E-2   -9.017598059662727E1
 1.723750000000000E9     3.864546685374894E-2   -1.335404592838206E2     9.428823207264244E-1    1.358642552235700E2     9.429694488877369E-1    1.358737490034736E2     5.061966847504328E-2   -8.987716380115545E1
 1.725000000000000E9     3.787247699280716E-2   -1.337416605259445E2     9.426195708572260E-1    1.356539869239058E2     9.427793266838399E-1    1.356396350716575E2     5.008866192650741E-2   -8.898553151737470E1
 1.726250000000000E9     3.686392527437080E-2   -1.339938048377958E2     9.427569666085676E-1    1.354534925983304E2     9.429355188665343E-1    1.354494634981509E2     4.955090083002339E-2   -8.844492295623661E1
 1.727500000000000E9     3.610832476030459E-2   -1.341349125820991E2     9.424777212454951E-1    1.352386229672933E2     9.425934998061852E-1    1.352190153774017E2     4.928615042674798E-2   -8.777633798130441E1
 1.728750000000000E9     3.545020047819590E-2   -1.339361606619910E2     9.423170303772387E-1    1.350242368512682E2     9.424032482118964E-1    1.350220330655372E2     4.855429631127168E-2   -8.714176745903691E1
 1.730000000000000E9     3.440181205527456E-2   -1.341120586605744E2     9.423973689186094E-1    1.348345752689758E2     9.423847880720571E-1    1.348077395608286E2     4.798077726160813E-2   -8.635854140219911E1
 1.731250000000000E9     3.369659060498301E-2   -1.345666610897778E2     9.425186407646589E-1    1.346204193012338E2     9.422105836407357E-1    1.345984988057942E2     4.736563425131737E-2   -8.593004345162410E1
 1.732500000000000E9     3.294556899407695E-2   -1.341150990356991E2     9.422151352088288E-1    1.344038449576570E2     9.421896075722046E-1    1.343907489975099E2     4.704715745634133E-2   -8.541686438553994E1
 1.733750000000000E9     3.224060476129222E-2   -1.345619080181535E2     9.421931050897647E-1    1.342016140709786E2     9.423220655991419E-1    1.342086351266328E2     4.654044840358334E-2   -8.453470825642994E1
 1.735000000000000E9     3.108257271221523E-2   -1.344021691014596E2     9.418182641695444E-1    1.339908124145488E2     9.418956446685112E-1    1.339881099278523E2     4.627122341426018E-2   -8.373566179419377E1
 1.736250000000000E9     3.045753939247281E-2   -1.348052216883866E2     9.420743564272354E-1    1.337885041346257E2     9.416537330387821E-1    1.337802058108510E2     4.584029933727739E-2   -8.298344635987969E1
 1.737500000000000E9     2.954800387346085E-2   -1.350353940380552E2     9.417810752685136E-1    1.335579075258549E2     9.420336309011392E-1    1.335495533090758E2     4.544674689841510E-2   -8.209945568162581E1
 1.738750000000000E9     2.873327693919875E-2   -1.346736286151911E2     9.417825857808948E-1    1.333586540502787E2     9.417198123669276E-1    1.333352197645144E2     4.504793146853876E-2   -8.147654894699312E1
 1.740000000000000E9     2.765492060950706E-2   -1.349665223988839E2     9.416119869959254E-1    1.331419549550813E2     9.415982768211247E-1    1.331358424797540E2     4.473952581366533E-2   -8.040298348604448E1
 1.741250000000000E9     2.705680942161254E-2   -1.355882161612362E2     9.416884303327746E-1    1.329386765729798E2     9.417221354614589E-1    1.329356228168628E2     4.425447062653160E-2   -7.966749281509274E1
 1.742500000000000E9     2.597094229603408E-2   -1.351140845905298E2     9.414912391645550E-1    1.327156688327363E2     9.412042228967785E-1    1.327190806637102E2     4.381836571566638E-2   -7.892757571503886E1
 1.743750000000000E9     2.506300266312573E-2   -1.353367252588313E2     9.413824316139782E-1    1.325161744829550E2     9.413522097873736E-1    1.324955619241130E2     4.357687456636276E-2   -7.807888008457692E1
 1.745000000000000E9     2.424586226638402E-2   -1.353642130185443E2     9.413531714532843E-1    1.323018683924163E2     9.410169784977335E-1    1.323013082159589E2     4.339426963565449E-2   -7.695310207845883E1
 1.746250000000000E9     2.342370075474094E-2   -1.354222924555952E2     9.411270413885244E-1    1.320908181115419E2     9.413192242329803E-1    1.320785227673366E2     4.308458167913080E-2   -7.598912427040294E1
 1.747500000000000E9     2.238500491508522E-2   -1.353437385143735E2     9.410106210318696E-1    1.318611861312791E2     9.408360405775562E-1    1.318594334801083E2     4.265681897524867E-2   -7.501724355070010E1
 1.748750000000000E9     2.150019712833319E-2   -1.350489272465518E2     9.409702956425754E-1    1.316603214829613E2     9.408320297311815E-1    1.316675590854110E2     4.243022965912109E-2   -7.405972371882871E1
 1.750000000000000E9     2.064074957980704E-2   -1.350205824473913E2     9.406019506164011E-1    1.314618688175115E2     9.407363915638217E-1    1.314494079920997E2     4.229261642234362E-2   -7.332816139112352E1
 1.751250000000000E9     1.974159910413578E-2   -1.355179476090882E2     9.407262485044759E-1    1.312454970499195E2     9.408392400795961E-1    1.312281116767318E2     4.193043022168299E-2   -7.219405770808228E1
 1.752500000000000E9     1.887699341156962E-2   -1.352580567508066E2     9.407559864498309E-1    1.310318184382754E2     9.405561511888501E-1    1.310302728456109E2     4.166421416864786E-2   -7.123368728933960E1
 1.753750000000000E9     1.787651414994107E-2   -1.353379046951580E2     9.406464671058925E-1    1.307841828730135E2     9.405819052683754E-1    1.308033841448344E2     4.164455825617967E-2   -7.010753137339415E1
 1.755000000000000E9     1.700340960586568E-2   -1.347494274647677E2     9.403583015228466E-1    1.305945742833539E2     9.405027309793045E-1    1.305914333921577E2     4.147557866291456E-2   -6.920781967372557E1
 1.756250000000000E9     1.621652795797882E-2   -1.349741013871525E2     9.403567992087699E-1    1.303800239265104E2     9.401732263527943E-1    1.303741639053097E2     4.137904066026450E-2   -6.802673826617691E1
 1.757500000000000E9     1.507014206622447E-2   -1.350574369404499E2     9.400091762486247E-1    1.301534561126105E2     9.402100884665211E-1    1.301568919610305E2     4.123642110136197E-2   -6.698044901811063E1
 1.758750000000000E9     1.423019004467277E-2   -1.348524077991351E2     9.399152356960351E-1    1.299501796025382E2     9.400376940042053E-1    1.299475853000995E2     4.106402302343023E-2   -6.594213016117791E1
 1.760000000000000E9     1.333376308270291E-2   -1.339011687721766E2     9.398173550586666E-1    1.297241716520731E2     9.398359056779189E-1    1.297340326226589E2     4.067688161064874E-2   -6.476254026322488E1
 1.761250000000000E9     1.214387396268796E-2   -1.328042958808347E2     9.400701506031971E-1    1.295212978341124E2     9.399923377175056E-1    1.295159102497077E2     4.055059275322839E-2   -6.379239783891721E1
 1.762500000000000E9     1.129498324031773E-2   -1.329287692523521E2     9.398202587757791E-1    1.292874055202090E2     9.397562174656049E-1    1.292894041952726E2     4.067471133871475E-2   -6.265303603901718E1
 1.763750000000000E9     1.023453186043386E-2   -1.319167231902266E2     9.394789574693260E-1    1.290752933837630E2     9.395366870727936E-1    1.290904889521420E2     4.063688417717014E-2   -6.128241078376330E1
 1.765000000000000E9     9.363114313651000E-3   -1.296517223575314E2     9.395392439658955E-1    1.288576714674940E2     9.393670346022149E-1    1.288643508792628E2     4.062474435433072E-2   -6.005207056940352E1
 1.766250000000000E9     8.287220737038128E-3   -1.289177872261236E2     9.393877066690067E-1    1.286386114208327E2     9.393074455851435E-1    1.286364999164080E2     4.060744879052836E-2   -5.903012941800602E1
 1.767500000000000E9     7.396176672231843E-3   -1.277216289698229E2     9.393337055293257E-1    1.284189206540904E2     9.389663889725473E-1    1.284305262288798E2     4.071980618160211E-2   -5.793304035064009E1
 1.768750000000000E9     6.476264094345744E-3   -1.253312331800630E2     9.392549729487978E-1    1.282022988038539E2     9.390372835525297E-1    1.282064112501274E2     4.071136964409366E-2   -5.690841665802487E1
 1.770000000000000E9     5.598444598885917E-3   -1.212589995818851E2     9.390458598665500E-1    1.279934509050550E2     9.390365834339512E-1    1.279812060024689E2     4.076309473294511E-2   -5.541796996351017E1
 1.771250000000000E9     4.731397777343262E-3   -1.157287599196163E2     9.389505469273336E-1    1.277724436468034E2     9.389646122609667E-1    1.277776311660101E2     4.080435418922268E-2   -5.415715348586623E1
 1.772500000000000E9     3.854855394887436E-3   -1.106799412866970E2     9.386641383778829E-1    1.275487858130940E2     9.386383113757805E-1    1.275543212371661E2     4.104283343006052E-2   -5.288122525523383E1
 1.773750000000000E9     2.819236077967001E-3   -1.000399896707609E2     9.386051185381251E-1    1.273334979271039E2     9.383850139508556E-1    1.273155668245192E2     4.126216218865121E-2   -5.183722970963029E1
 1.775000000000000E9     2.503405867818592E-3   -7.583168212093398E1     9.385650857989203E-1    1.271115042205437E2     9.384250342701657E-1    1.271156874550572E2     4.131775723172281E-2   -5.057426324690795E1
 1.776250000000000E9     2.402162370348538E-3   -5.381667265802027E1     9.384023275184972E-1    1.268737252408825E2     9.382656012379010E-1    1.268812483975199E2     4.152272313110494E-2   -4.962280248975010E1
 1.777500000000000E9     2.486347008231882E-3   -2.962479188615697E1     9.381242298643322E-1    1.266580148296377E2     9.382135216383329E-1    1.266639095972224E2     4.166461320234455E-2   -4.814370573240308E1
 1.778750000000000E9     3.154786573806409E-3   -1.364939076000372E1     9.381212168490889E-1    1.264509366180182E2     9.381480384791557E-1    1.264390863503965E2     4.206508341063898E-2   -4.716509869613509E1
 1.780000000000000E9     3.944725952134080E-3   -4.630621689576134       9.380074304673942E-1    1.262235213442528E2     9.378161996285442E-1    1.262213580115022E2     4.237893802858788E-2   -4.599608284177500E1
 1.781250000000000E9     5.008805121772032E-3    3.099459551728702       9.377934888424719E-1    1.259880760144889E2     9.376080472428493E-1    1.259932903470414E2     4.262398645722990E-2   -4.470201898779584E1
 1.782500000000000E9     5.870656868594067E-3    9.770865794109667       9.375779711910169E-1    1.257684046169983E2     9.375623743420615E-1    1.257710336586247E2     4.287490490760187E-2   -4.368890009109165E1
 1.783750000000000E9     7.015982408465588E-3    1.194909483863120E1     9.374136395796900E-1    1.255579343789273E2     9.372533522799814E-1    1.255638600452300E2     4.312654986584731E-2   -4.259947666994084E1
 1.785000000000000E9     7.991819837818730E-3    1.473266685182240E1     9.372810971740956E-1    1.253228929573800E2     9.370742777615407E-1    1.253185735306134E2     4.349811520321420E-2   -4.156621955590531E1
 1.786250000000000E9     8.908822205455228E-3    1.615374354590073E1     9.371558270228724E-1    1.250992625140603E2     9.370176373470178E-1    1.251100756662627E2     4.371408612067362E-2   -4.016378960997154E1
 1.787500000000000E9     1.002912676659241E-2    1.735117025951074E1     9.372459723781977E-1    1.248769966707896E2     9.368725773376292E-1    1.248807531055749E2     4.416524318355619E-2   -3.922245442687526E1
 1.788750000000000E9     1.135078727160244E-2    1.856588950450207E1     9.367616249727788E-1    1.246541742061300E2     9.366046284181565E-1    1.246600673099705E2     4.459160206519851E-2   -3.811958326208092E1
 1.790000000000000E9     1.221589988132321E-2    2.057432695893052E1     9.365971141908650E-1    1.244351791945780E2     9.365501347664174E-1    1.244395503985666E2     4.518585057292444E-2   -3.705800959843361E1
 1.791250000000000E9     1.319440935094133E-2    2.066144827702934E1     9.364722696012390E-1    1.241948500476229E2     9.362998520850022E-1    1.242049483272446E2     4.556379160637954E-2   -3.608710311793088E1
 1.792500000000000E9     1.449966926911475E-2    2.093003329248261E1     9.362238226719999E-1    1.239858843989823E2     9.361257340735663E-1    1.239821433786530E2     4.619654072515369E-2   -3.490683591319871E1
 1.793750000000000E9     1.560037898741042E-2    2.140743665874297E1     9.361776474916642E-1    1.237512100232269E2     9.360058921614900E-1    1.237562555937660E2     4.681685046884247E-2   -3.394641113093780E1
 1.795000000000000E9     1.681165140132954E-2    2.094248034695778E1     9.360543699276891E-1    1.235330768913704E2     9.357844081789581E-1    1.235174840767067E2     4.737357156834988E-2   -3.302479925892025E1
 1.796250000000000E9     1.782982169261459E-2    2.151444549376647E1     9.356013327881171E-1    1.233039428889822E2     9.356320058267299E-1    1.232978369282511E2     4.806316528342641E-2   -3.181847652077122E1
 1.797500000000000E9     1.888915733743741E-2    2.121710482642461E1     9.354314077527768E-1    1.230716143788746E2     9.353149541593737E-1    1.230639650062117E2     4.864900028081822E-2   -3.094008556159470E1
 1.798750000000000E9     1.987780646477511E-2    2.238345269443102E1     9.352624686931928E-1    1.228403272277733E2     9.353143741706386E-1    1.228461170905765E2     4.937600628380437E-2   -3.000473898802201E1
 1.800000000000000E9     2.111274448381193E-2    2.210835746177568E1     9.352899548456870E-1    1.226045132291979E2     9.351009365820762E-1    1.226077599452474E2     5.003510349368983E-2   -2.925208278836843E1
 1.801250000000000E9     2.247544625274112E-2    2.221748193516191E1     9.349778541903738E-1    1.223831761885255E2     9.347992666013472E-1    1.223925966683309E2     5.060502522685169E-2   -2.835270484783540E1
 1.802500000000000E9     2.371015648620788E-2    2.205868951551247E1     9.347234722704512E-1    1.221575694258219E2     9.346682884242595E-1    1.221493921818902E2     5.144578550596795E-2   -2.753645376777531E1
 1.803750000000000E9     2.467935677096858E-2    2.208271204577056E1     9.344945490769335E-1    1.219367845621707E2     9.345419587582744E-1    1.219271660507069E2     5.235717231072920E-2   -2.688222257835216E1
 1.805000000000000E9     2.596654080185367E-2    2.199555137060501E1     9.344826215106528E-1    1.216912450330980E2     9.342926679412321E-1    1.217125995037547E2     5.311380619950262E-2   -2.581443216595591E1
 1.806250000000000E9     2.704174399205804E-2    2.205356912353270E1     9.341848941344163E-1    1.214657240661103E2     9.343931653889872E-1    1.214795295027406E2     5.368261418000348E-2   -2.521270950593482E1
 1.807500000000000E9     2.832051412161570E-2    2.198546650396527E1     9.342051173409380E-1    1.212401895454167E2     9.338672338242852E-1    1.212403160328974E2     5.459424860709174E-2   -2.442902336811116E1
 1.808750000000000E9     2.954216507140861E-2    2.196979092128097E1     9.337456310328240E-1    1.210078952978760E2     9.338089033070109E-1    1.210008844424139E2     5.548238146674107E-2   -2.367500604722260E1
 1.810000000000000E9     3.070538320828793E-2    2.225160454944371E1     9.336156754615653E-1    1.207733713942405E2     9.335492228657097E-1    1.207843232221529E2     5.640907828296948E-2   -2.298485673812279E1
 1.811250000000000E9     3.195931220794385E-2    2.206691318437014E1     9.332551861711285E-1    1.205456138632618E2     9.332259420235798E-1    1.205642136574420E2     5.714504142299666E-2   -2.225608126652027E1
 1.812500000000000E9     3.298432955761796E-2    2.188745531841405E1     9.330646484034709E-1    1.203058523280971E2     9.332414217574674E-1    1.203147808326155E2     5.796190717163212E-2   -2.169922744170243E1
 1.813750000000000E9     3.429167938475670E-2    2.165691917340923E1     9.330512834901281E-1    1.200780405398666E2     9.326820819176207E-1    1.200991216083764E2     5.906511783965534E-2   -2.115646546908275E1
 1.815000000000000E9     3.557066999345807E-2    2.131870388607782E1     9.326790708025704E-1    1.198424879328647E2     9.323549483435771E-1    1.198625983884997E2     6.011266842612920E-2   -2.052843031337008E1
 1.816250000000000E9     3.683148637652483E-2    2.121162352674924E1     9.323372195749605E-1    1.195992532934776E2     9.323701947043028E-1    1.196137232992641E2     6.085989720104502E-2   -1.993213129900905E1
 1.817500000000000E9     3.818630792055819E-2    2.135687142159632E1     9.323622780683998E-1    1.193723160205763E2     9.321240274222294E-1    1.193800049690737E2     6.177856227552160E-2   -1.930848837280984E1
 1.818750000000000E9     3.933447317828889E-2    2.124653034483021E1     9.319139998751964E-1    1.191334894962889E2     9.317454235302841E-1    1.191440375382089E2     6.269514400390516E-2   -1.885054235808302E1
 1.820000000000000E9     4.056897845666043E-2    2.119827449113436E1     9.318222424007222E-1    1.188988828508285E2     9.316771028216888E-1    1.189136701200290E2     6.402864696173831E-2   -1.825853914192139E1
 1.821250000000000E9     4.195478953260452E-2    2.081951765324648E1     9.316322719769378E-1    1.186741717814265E2     9.315293242866219E-1    1.186850446328241E2     6.479981112640307E-2   -1.785779513677045E1
 1.822500000000000E9     4.309155900091117E-2    2.061425831761143E1     9.314732317713714E-1    1.184464967002117E2     9.311322965195197E-1    1.184428834266194E2     6.585854775566109E-2   -1.737679781590297E1
 1.823750000000000E9     4.450263081780630E-2    2.057989084101962E1     9.311171778559981E-1    1.182000380070052E2     9.308692061026157E-1    1.182056648151933E2     6.684731477399114E-2   -1.695832285551560E1
 1.825000000000000E9     4.598878491042738E-2    2.037065875959415E1     9.309372460141717E-1    1.179609663099864E2     9.307544255061453E-1    1.179799896332989E2     6.800242147633884E-2   -1.639581679729760E1
 1.826250000000000E9     4.723519815287829E-2    1.996099840722713E1     9.305724776754696E-1    1.177284423026491E2     9.304240009771613E-1    1.177369523683328E2     6.902025137936403E-2   -1.610431555547922E1
 1.827500000000000E9     4.873695916324987E-2    1.994087110345762E1     9.301806136007953E-1    1.174834525340456E2     9.301634559238315E-1    1.175185833177758E2     7.003632746199459E-2   -1.570596719727674E1
 1.828750000000000E9     5.012264635391251E-2    1.986611534226628E1     9.300683902987789E-1    1.172379437307067E2     9.298731372429004E-1    1.172653976452257E2     7.150249120904432E-2   -1.529772354371345E1
 1.830000000000000E9     5.145614195744092E-2    1.969398862517712E1     9.299899438499009E-1    1.170077098021158E2     9.298347581603097E-1    1.170204083180753E2     7.244912944603077E-2   -1.502556953552272E1
 1.831250000000000E9     5.264190117451336E-2    1.956808995496643E1     9.297406512644080E-1    1.167651696295398E2     9.296775071067900E-1    1.167911241667017E2     7.365316150544655E-2   -1.469492780395486E1
 1.832500000000000E9     5.379655873897250E-2    1.923745894874114E1     9.292932894935558E-1    1.165464958559101E2     9.290926884860382E-1    1.165509576613527E2     7.481162402521396E-2   -1.429806322866737E1
 1.833750000000000E9     5.535734851932452E-2    1.916049290549967E1     9.289348087599314E-1    1.162994520554160E2     9.287281936965660E-1    1.163038086746017E2     7.607991725066256E-2   -1.406793965266691E1
 1.835000000000000E9     5.684703055345707E-2    1.882951385427801E1     9.289234766186867E-1    1.160654301921599E2     9.283198681225353E-1    1.160622550409435E2     7.714274899344713E-2   -1.357402961556660E1
 1.836250000000000E9     5.810620031746776E-2    1.870244670033353E1     9.285557728246465E-1    1.158269692123429E2     9.281845011771289E-1    1.158236998851190E2     7.833401743589299E-2   -1.344754281228992E1
 1.837500000000000E9     5.942691591117912E-2    1.849954783378630E1     9.281574765260381E-1    1.155686576747322E2     9.281131822163425E-1    1.155845870740295E2     7.953537298636773E-2   -1.324495516104826E1
 1.838750000000000E9     6.076644738395208E-2    1.835718337945223E1     9.281015441704872E-1    1.153381357166755E2     9.274918697613246E-1    1.153399447654560E2     8.063450701348357E-2   -1.290881345122272E1
 1.840000000000000E9     6.235396459177852E-2    1.822522694732553E1     9.275340595820943E-1    1.150883831757757E2     9.272454176854734E-1    1.150964912562523E2     8.199829173210686E-2   -1.268452625367408E1
 1.841250000000000E9     6.374081704961787E-2    1.804079720670962E1     9.271817633896632E-1    1.148676331366049E2     9.271346998677603E-1    1.148553148213122E2     8.325931533178196E-2   -1.235076908645474E1
 1.842500000000000E9     6.522048374791053E-2    1.784398910233267E1     9.269916477634934E-1    1.146085823459084E2     9.268978892592278E-1    1.146130214223787E2     8.436776074112633E-2   -1.223142889421342E1
 1.843750000000000E9     6.651180381224073E-2    1.756318537734008E1     9.267445461353602E-1    1.143656934355384E2     9.264406382183517E-1    1.143680704256609E2     8.571711368618502E-2   -1.200514626137976E1
 1.845000000000000E9     6.784165398885196E-2    1.737072966327739E1     9.262321087405051E-1    1.141292375231155E2     9.262093915851052E-1    1.141271991074469E2     8.706711580060787E-2   -1.180763404047609E1
 1.846250000000000E9     6.951979521118733E-2    1.718761643082769E1     9.260554626230590E-1    1.138766628693987E2     9.257214978952979E-1    1.138906881348361E2     8.843467135407450E-2   -1.155330473957621E1
 1.847500000000000E9     7.076990751224328E-2    1.695061203277047E1     9.259457808773711E-1    1.136319926208086E2     9.254528515215615E-1    1.136429245446788E2     8.982937442508786E-2   -1.137431355159154E1
 1.848750000000000E9     7.243571225528393E-2    1.677473685868181E1     9.255896066480812E-1    1.133666688034672E2     9.254165793575486E-1    1.134011740094004E2     9.097882854084678E-2   -1.122903171008808E1
 1.850000000000000E9     7.377198659076747E-2    1.662482056358693E1     9.253287912046092E-1    1.131377313078310E2     9.248551617791182E-1    1.131431461217188E2     9.222830495843296E-2   -1.109980624001597E1
 1.851250000000000E9     7.523763236395424E-2    1.628557974989472E1     9.247854635673253E-1    1.128869619282918E2     9.245712965900020E-1    1.129048363781832E2     9.356824838152350E-2   -1.082624939026998E1
 1.852500000000000E9     7.687909984711357E-2    1.612223661052860E1     9.244309475607786E-1    1.126413761295307E2     9.242389875575493E-1    1.126552750847372E2     9.494447957135289E-2   -1.081771188990592E1
 1.853750000000000E9     7.844734256643249E-2    1.579101373623864E1     9.241672303901651E-1    1.123835565118355E2     9.240486247484759E-1    1.123943736857707E2     9.621172774917686E-2   -1.079121119819543E1
 1.855000000000000E9     7.991135842705131E-2    1.573146414006181E1     9.239630343816680E-1    1.121376084200155E2     9.235524317610049E-1    1.121455104572494E2     9.758228399861063E-2   -1.063909004092754E1
 1.856250000000000E9     8.151820025831608E-2    1.542281514749052E1     9.236907904986579E-1    1.118985556594287E2     9.233636292101391E-1    1.119027466998623E2     9.893268313388473E-2   -1.055270791517911E1
 1.857500000000000E9     8.301834119942436E-2    1.513877864756467E1     9.233903977733713E-1    1.116517919764945E2     9.227160809877827E-1    1.116481901321835E2     1.003725017948474E-1   -1.043335095026261E1
 1.858750000000000E9     8.459576140950754E-2    1.482892934084046E1     9.231375794641827E-1    1.113976846868278E2     9.226870796480618E-1    1.114114502277349E2     1.018876641040601E-1   -1.027085376963846E1
 1.860000000000000E9     8.615073656807647E-2    1.467399055463830E1     9.227339640097523E-1    1.111513174073997E2     9.226173237193087E-1    1.111670486170936E2     1.032028646785143E-1   -1.025583323642034E1
 1.861250000000000E9     8.744020501739964E-2    1.451959860648262E1     9.221264924548955E-1    1.108931698579189E2     9.219690483870248E-1    1.108884374885887E2     1.046226256685310E-1   -1.019911800987584E1
 1.862500000000000E9     8.926802880701189E-2    1.427829473452781E1     9.218977409830150E-1    1.106194721929965E2     9.216599128669622E-1    1.106466831224819E2     1.061689283757231E-1   -1.010734011925611E1
 1.863750000000000E9     9.078329866015634E-2    1.396682383590934E1     9.214915994186446E-1    1.103826026484570E2     9.213102319097473E-1    1.104003341976953E2     1.075141446254127E-1   -1.003524031689957E1
 1.865000000000000E9     9.235872738981821E-2    1.382120721053473E1     9.210116972429832E-1    1.101235163782068E2     9.209306871752297E-1    1.101507965023867E2     1.088411990899651E-1   -9.934582041576524
 1.866250000000000E9     9.400535029319639E-2    1.358886870078888E1     9.208210046518780E-1    1.098708614363385E2     9.203603545806230E-1    1.098906539693004E2     1.104958543845952E-1   -9.848899759279050
 1.867500000000000E9     9.559784833848647E-2    1.348846991159786E1     9.202951805160182E-1    1.096151497996254E2     9.201813988783746E-1    1.096338256717088E2     1.117835895207370E-1   -9.881144139683592
 1.868750000000000E9     9.742873063556667E-2    1.304317448646862E1     9.199481524095453E-1    1.093641957543155E2     9.195928354802486E-1    1.093899439621383E2     1.133033407892012E-1   -9.810888774140443
 1.870000000000000E9     9.890118943844259E-2    1.289284063749315E1     9.197627644388110E-1    1.091087883773768E2     9.194581237131926E-1    1.091353852233739E2     1.149350849752156E-1   -9.769843944669546
 1.871250000000000E9     1.004960586714613E-1    1.252024567450207E1     9.192481728597947E-1    1.088522468435696E2     9.188577043470517E-1    1.088793252248993E2     1.162965898141925E-1   -9.727825743157865
 1.872500000000000E9     1.021543040601815E-1    1.242613856438578E1     9.188429017571613E-1    1.085842599663964E2     9.186945969636731E-1    1.086079796623961E2     1.178794897821795E-1   -9.807592878451175
 1.873750000000000E9     1.037706176919140E-1    1.204635820987638E1     9.184390681890422E-1    1.083384829122904E2     9.183374057334397E-1    1.083407618648147E2     1.196169247422859E-1   -9.720278949074610
 1.875000000000000E9     1.053882842150523E-1    1.179688887284563E1     9.181742990755615E-1    1.080641307360257E2     9.178819771381757E-1    1.080976743720706E2     1.210388386344277E-1   -9.724984272766422
 1.876250000000000E9     1.072773038871479E-1    1.175076516028687E1     9.175509219574591E-1    1.078142281571351E2     9.171244949375028E-1    1.078557246534625E2     1.224846304107670E-1   -9.701851258746679
 1.877500000000000E9     1.089390553498027E-1    1.133983174707417E1     9.172687370063632E-1    1.075483141591233E2     9.169636034657574E-1    1.075842879253229E2     1.240886658054358E-1   -9.728289870119665
 1.878750000000000E9     1.106654379098492E-1    1.105939593398527E1     9.169879765465889E-1    1.073011130522273E2     9.165136756446645E-1    1.073192095586240E2     1.257002994469428E-1   -9.770892949731346
 1.880000000000000E9     1.123639850220086E-1    1.080362928738934E1     9.163840003305167E-1    1.070356394398259E2     9.160787350027495E-1    1.070566208013447E2     1.273810378886583E-1   -9.699088249154164
 1.881250000000000E9     1.140812154661915E-1    1.057008376325587E1     9.156357474848326E-1    1.067581733647691E2     9.155133266828640E-1    1.067873040603115E2     1.288464065549475E-1   -9.844264863710560
 1.882500000000000E9     1.157048503471035E-1    1.034373314585607E1     9.152741466880546E-1    1.065020617204068E2     9.149485650344222E-1    1.065460951816907E2     1.305691719670599E-1   -9.709425512765080
 1.883750000000000E9     1.176193331225005E-1    1.012770915091419E1     9.148844983842143E-1    1.062340034129138E2     9.145680803470441E-1    1.062652001944092E2     1.322730005765558E-1   -9.829042195617225
 1.885000000000000E9     1.193108182964928E-1    9.775947286719846       9.143839671411650E-1    1.059765325317144E2     9.141919916972908E-1    1.060205190804847E2     1.339293158025897E-1   -9.844715185607900
 1.886250000000000E9     1.212048985787021E-1    9.509132882840376       9.139003495407436E-1    1.057121060395893E2     9.137943972037585E-1    1.057389418688966E2     1.356201394099141E-1   -9.825568436474393
 1.887500000000000E9     1.228979383773013E-1    9.306884284594018       9.134943341478452E-1    1.054413420395440E2     9.131608779917383E-1    1.054731950676582E2     1.369734091193817E-1   -9.924344474566993
 1.888750000000000E9     1.246103710656375E-1    8.990478037675221       9.129553873387110E-1    1.051681225984464E2     9.126242271855579E-1    1.052005976919806E2     1.389051938019397E-1   -9.932453355027762
 1.890000000000000E9     1.263438428710745E-1    8.727632539119773       9.125437121806771E-1    1.048984692358289E2     9.125210777063679E-1    1.049541644941637E2     1.406949540814305E-1   -1.005076592651754E1
 1.891250000000000E9     1.281420967083941E-1    8.395872437082057       9.119199506685575E-1    1.046316344339142E2     9.118322843502548E-1    1.046721195611161E2     1.423292022331733E-1   -1.005557754241370E1
 1.892500000000000E9     1.300157212546485E-1    8.170157792650835       9.114793769060157E-1    1.043713594221671E2     9.113318075018724E-1    1.044062718456805E2     1.439838760271318E-1   -1.013035643758186E1
 1.893750000000000E9     1.320257000994363E-1    7.798829936658568       9.110970616323899E-1    1.041039450459782E2     9.108599217344588E-1    1.041566026252391E2     1.457042848002438E-1   -1.017753276456358E1
 1.895000000000000E9     1.336912964742986E-1    7.566474693856491       9.103571612495927E-1    1.038440598524723E2     9.102280085585450E-1    1.038689088264986E2     1.474465783016608E-1   -1.028339670557368E1
 1.896250000000000E9     1.355946153931951E-1    7.207023485033243       9.098324416849728E-1    1.035725777001738E2     9.097691499025645E-1    1.036178388430568E2     1.493656622211837E-1   -1.026792304899866E1
 1.897500000000000E9     1.376614575899802E-1    7.008764972597997       9.092158377867748E-1    1.032929236366604E2     9.090386613873390E-1    1.033541858526210E2     1.509349545219023E-1   -1.042924112515686E1
 1.898750000000000E9     1.394118995497930E-1    6.672933920923101       9.088495164826069E-1    1.030249962838703E2     9.084934041394602E-1    1.030466531058899E2     1.527837937652907E-1   -1.047879280523435E1
 1.900000000000000E9     1.413396739292615E-1    6.439469377240887       9.082324991169333E-1    1.027427787727189E2     9.079810397224505E-1    1.028001033976327E2     1.545826474077411E-1   -1.055461303907259E1
 1.901250000000000E9     1.433330373026355E-1    6.203545933847346       9.073516089607775E-1    1.025025983528151E2     9.075146458690097E-1    1.025035875242015E2     1.564417740588332E-1   -1.063726118332506E1
 1.902500000000000E9     1.451740894383379E-1    5.891992912133121       9.069436427936977E-1    1.022194335356497E2     9.070436059105444E-1    1.022309912827250E2     1.583338266686301E-1   -1.071051523747158E1
 1.903750000000000E9     1.468179187769661E-1    5.613946108584069       9.063382220829467E-1    1.019399421863559E2     9.065655203163563E-1    1.019591405506205E2     1.601569116942921E-1   -1.080322421831277E1
 1.905000000000000E9     1.488823542217375E-1    5.393597934949597       9.057370098943677E-1    1.016534709552719E2     9.056580994187311E-1    1.016933891154055E2     1.621824624481876E-1   -1.085938919863291E1
 1.906250000000000E9     1.510562617934846E-1    5.023242129687882       9.051944072150310E-1    1.013816021780092E2     9.051359139249924E-1    1.014139885642897E2     1.638312175003849E-1   -1.101051397588699E1
 1.907500000000000E9     1.528404201130599E-1    4.795055178823024       9.045013436682064E-1    1.010927993814515E2     9.046709138631732E-1    1.011403483575488E2     1.658132215167361E-1   -1.109407542429595E1
 1.908750000000000E9     1.547597152241537E-1    4.455343782702977       9.040539966909441E-1    1.008268456801092E2     9.040082156268123E-1    1.008555373155919E2     1.676677676435467E-1   -1.123242787132595E1
 1.910000000000000E9     1.567784885123221E-1    4.063421187981465       9.034097385544323E-1    1.005534606644612E2     9.032756149187189E-1    1.005831741348351E2     1.699289818356186E-1   -1.137469910340226E1
 1.911250000000000E9     1.585796673339504E-1    3.872601804554292       9.028251076011411E-1    1.002803553512353E2     9.026077797699257E-1    1.002964625099832E2     1.715997603861025E-1   -1.147938459122192E1
 1.912500000000000E9     1.606996055244952E-1    3.568910345290249       9.021696736291467E-1    1.000038603998105E2     9.023197082610225E-1    1.000296155477327E2     1.737664438209734E-1   -1.159483760229405E1
 1.913750000000000E9     1.629080048091527E-1    3.241503239746189       9.014175338001232E-1    9.971081353386388E1     9.015119596939747E-1    9.975371526117284E1     1.754305900047869E-1   -1.171895710176628E1
 1.915000000000000E9     1.647290890455425E-1    2.939757296353854       9.008610871090174E-1    9.944387986043964E1     9.006432844650307E-1    9.946871076252064E1     1.776083247702277E-1   -1.179394855575099E1
 1.916250000000000E9     1.668326974562272E-1    2.675181312028417       9.001332302023671E-1    9.915953779731103E1     9.000640241571481E-1    9.918961123103693E1     1.793388819452499E-1   -1.195307204012355E1
 1.917500000000000E9     1.688584990626920E-1    2.371531564270612       8.996175706926235E-1    9.888107126309477E1     8.993922993685085E-1    9.889967451475867E1     1.812878571441805E-1   -1.207320404538370E1
 1.918750000000000E9     1.709285766539984E-1    2.090291498136117       8.987461188292957E-1    9.858955590353493E1     8.985793603824549E-1    9.861658142222176E1     1.833490638315591E-1   -1.219226296158539E1
 1.920000000000000E9     1.729724029260064E-1    1.798818797008022       8.982714188009941E-1    9.830890355959490E1     8.980346248400640E-1    9.832838227412506E1     1.854396210452606E-1   -1.239167359634676E1
 1.921250000000000E9     1.748380901877680E-1    1.457705660423317       8.974326825847162E-1    9.802624005520443E1     8.975811895269105E-1    9.804710868235952E1     1.873552192874518E-1   -1.248901214741689E1
 1.922500000000000E9     1.768741787053633E-1    1.159020728978586       8.970071274937934E-1    9.774627580935108E1     8.964781558829582E-1    9.776286747403603E1     1.894347564508917E-1   -1.267939126034915E1
 1.923750000000000E9     1.791598316559892E-1    8.524465892527796E-1    8.959060931506675E-1    9.746498555152309E1     8.959003469502566E-1    9.747449719264469E1     1.915642729677484E-1   -1.281962447858014E1
 1.925000000000000E9     1.813230388658211E-1    5.215961710789162E-1    8.952132039216262E-1    9.717407837370457E1     8.950473329931489E-1    9.720436478076520E1     1.936203036805241E-1   -1.299135180792035E1
 1.926250000000000E9     1.833711837223241E-1    3.232083297464224E-1    8.944656861527581E-1    9.688488605505519E1     8.943647876357381E-1    9.691964427241086E1     1.957409315202004E-1   -1.309530059750606E1
 1.927500000000000E9     1.855655751047682E-1   -8.112826862195203E-2    8.936639679157292E-1    9.659184864156583E1     8.934700139223459E-1    9.662940894833127E1     1.978409092641768E-1   -1.327536621033803E1
 1.928750000000000E9     1.874165277554809E-1   -3.654527487747102E-1    8.931975301812340E-1    9.630087519432560E1     8.929055187777438E-1    9.634055032664293E1     1.998331749192664E-1   -1.348652324494948E1
 1.930000000000000E9     1.899679634545093E-1   -6.320802069319467E-1    8.922043794128991E-1    9.602847390364118E1     8.919617391698450E-1    9.605640791337525E1     2.020434690243914E-1   -1.366620788280824E1
 1.931250000000000E9     1.918253499106018E-1   -9.899450328663615E-1    8.916376910888935E-1    9.573723606623210E1     8.912513908417168E-1    9.576665812879088E1     2.042435167155140E-1   -1.380719258784786E1
 1.932500000000000E9     1.942480892174816E-1   -1.255594209570748       8.906594656006160E-1    9.543991388679389E1     8.905110339017324E-1    9.546941688165433E1     2.062906983442949E-1   -1.403037093532449E1
 1.933750000000000E9     1.963505412673071E-1   -1.606798001546397       8.899007590128698E-1    9.515635361480246E1     8.898158631934651E-1    9.517568559077121E1     2.083439469784371E-1   -1.415351815882082E1
 1.935000000000000E9     1.988559358385950E-1   -1.932601628884199       8.890353374369115E-1    9.486822487711069E1     8.890856976859615E-1    9.488554696104042E1     2.103853344093548E-1   -1.433520733486526E1
 1.936250000000000E9     2.007212714819609E-1   -2.276488895183297       8.884011519951995E-1    9.456817064706713E1     8.881990994380645E-1    9.459113607755172E1     2.128804832664521E-1   -1.449271454066804E1
 1.937500000000000E9     2.029375096769742E-1   -2.508312963516713       8.875161331246250E-1    9.428067326726408E1     8.874522461792429E-1    9.430612542561904E1     2.150682304160616E-1   -1.470707767019800E1
 1.938750000000000E9     2.052508073081261E-1   -2.864159505169777       8.866834436166127E-1    9.397732464309286E1     8.865925119585187E-1    9.401082954037039E1     2.171569604914017E-1   -1.486700272175248E1
 1.940000000000000E9     2.074094386494442E-1   -3.131036988149874       8.856670864015049E-1    9.367707868847266E1     8.855546339979982E-1    9.372515655485302E1     2.192169426195756E-1   -1.503366956981931E1
 1.941250000000000E9     2.097561222564733E-1   -3.475678601417506       8.849476156467215E-1    9.339109873683519E1     8.846002554984128E-1    9.341462849472347E1     2.215133789819881E-1   -1.526497596195605E1
 1.942500000000000E9     2.120191608240202E-1   -3.794178896805994       8.841664292770086E-1    9.310811628021786E1     8.837006351768338E-1    9.312985222756333E1     2.238134762348160E-1   -1.545815946483998E1
 1.943750000000000E9     2.142448287478444E-1   -4.060033005953079       8.832273547372779E-1    9.279143573915208E1     8.832513650168166E-1    9.280346035114604E1     2.258558183658247E-1   -1.565326150300502E1
 1.945000000000000E9     2.165519785942809E-1   -4.415332047885032       8.823207301704306E-1    9.248525262056728E1     8.822552948179677E-1    9.251976026053354E1     2.281543911482663E-1   -1.582554827843589E1
 1.946250000000000E9     2.189998269459303E-1   -4.698436773621850       8.812917563465564E-1    9.219073530291001E1     8.812192537364633E-1    9.222514237081076E1     2.305397859223952E-1   -1.606132100165243E1
 1.947500000000000E9     2.211508625462656E-1   -5.118497694708201       8.806264488703214E-1    9.190302672559659E1     8.805167891460011E-1    9.191895974801167E1     2.328416810903080E-1   -1.622539300091008E1
 1.948750000000000E9     2.235450979891189E-1   -5.384571690222447       8.797933287695400E-1    9.159602320698349E1     8.793748529766815E-1    9.161810291129976E1     2.350611695213298E-1   -1.644002610155806E1
 1.950000000000000E9     2.257719956687598E-1   -5.712328823731943       8.785956206460839E-1    9.128709994879770E1     8.785717183069573E-1    9.131343691295874E1     2.372886010354917E-1   -1.664203464715724E1
 1.951250000000000E9     2.284739261514528E-1   -6.037329927510727       8.776546229097262E-1    9.099582813160860E1     8.775350950389733E-1    9.102185545240734E1     2.397456792094948E-1   -1.689823929651386E1
 1.952500000000000E9     2.306406559088447E-1   -6.347280765463300       8.770666968538479E-1    9.068152883779780E1     8.764905734210811E-1    9.073582433971978E1     2.420398779355826E-1   -1.708984319167460E1
 1.953750000000000E9     2.331236247039113E-1   -6.643148990293934       8.759350783688908E-1    9.036963891886175E1     8.755142418687568E-1    9.040648719736464E1     2.445442945243945E-1   -1.729288767968369E1
 1.955000000000000E9     2.354694599093405E-1   -6.980537746674962       8.751155878990245E-1    9.006927022673214E1     8.746007838863328E-1    9.010429622132040E1     2.466905191130755E-1   -1.756154759391514E1
 1.956250000000000E9     2.378635848479616E-1   -7.331059770963329       8.739173633659415E-1    8.976533356445223E1     8.736919324153605E-1    8.980046729665763E1     2.491528882724972E-1   -1.775346103894695E1
 1.957500000000000E9     2.403610938983780E-1   -7.620213175875392       8.728866922289120E-1    8.947570789242178E1     8.724948009074814E-1    8.948962672719915E1     2.513912402831152E-1   -1.801716655913028E1
 1.958750000000000E9     2.426023293790249E-1   -7.964081614279500       8.717842652656286E-1    8.916788020857737E1     8.716949825315025E-1    8.919678674366419E1     2.538290594793071E-1   -1.818692393353129E1
 1.960000000000000E9     2.452915884271712E-1   -8.324332338326824       8.707717818270225E-1    8.882899126917417E1     8.707748599139464E-1    8.888358043322492E1     2.559277586639011E-1   -1.839228456045057E1
 1.961250000000000E9     2.478252251654667E-1   -8.663550347117493       8.695398536466400E-1    8.852283815418852E1     8.696354934895862E-1    8.856835602908022E1     2.582401548722984E-1   -1.861386414713873E1
 1.962500000000000E9     2.501923420337505E-1   -8.968797120685409       8.686099700751415E-1    8.820992218446492E1     8.685002581925748E-1    8.825983024387685E1     2.607964152395221E-1   -1.888445419287258E1
 1.963750000000000E9     2.528112883573647E-1   -9.303981502805932       8.676151677753313E-1    8.788898135321881E1     8.675276694557872E-1    8.794595694489709E1     2.633949600462921E-1   -1.910016878579062E1
 1.965000000000000E9     2.553115565044659E-1   -9.627961238333915       8.662490371814523E-1    8.758537249248269E1     8.665020051310599E-1    8.763574850035866E1     2.657395678754896E-1   -1.933978650431958E1
 1.966250000000000E9     2.577534343514254E-1   -9.986018169092233       8.652856038225791E-1    8.727364477443965E1     8.655816668229579E-1    8.732660668406456E1     2.682278703604560E-1   -1.951670992007709E1
 1.967500000000000E9     2.602672716042481E-1   -1.035050189073574E1     8.643059701372243E-1    8.695190512566806E1     8.644029731798204E-1    8.700755545690478E1     2.707352761036847E-1   -1.979808906379908E1
 1.968750000000000E9     2.627565833895430E-1   -1.068838631697357E1     8.631360163352145E-1    8.663289339518678E1     8.628335457079502E-1    8.670661928112298E1     2.730644454944813E-1   -2.006044867464923E1
 1.970000000000000E9     2.653575039431611E-1   -1.098045201673183E1     8.621223332939175E-1    8.631896653543937E1     8.621762315943746E-1    8.637291229053322E1     2.759901061287097E-1   -2.028546866971884E1
 1.971250000000000E9     2.680122776643457E-1   -1.135485458738660E1     8.608863458623736E-1    8.600518452639405E1     8.607690205775538E-1    8.606066613884410E1     2.781840383243022E-1   -2.055404150722117E1
 1.972500000000000E9     2.707147225819439E-1   -1.168265028600428E1     8.596735435832277E-1    8.567601291982504E1     8.597364548495049E-1    8.572560193625496E1     2.807005151752947E-1   -2.075296889111679E1
 1.973750000000000E9     2.730932569194577E-1   -1.203164030779079E1     8.585833610337883E-1    8.536054366007951E1     8.584332071266922E-1    8.542827833578878E1     2.831713442343637E-1   -2.097922133881397E1
 1.975000000000000E9     2.756314738426874E-1   -1.234671836970967E1     8.572511277345151E-1    8.502814044014299E1     8.575898680415579E-1    8.509939257595052E1     2.858795608069782E-1   -2.127122379729341E1
 1.976250000000000E9     2.785743484653872E-1   -1.273845725906381E1     8.560600097186648E-1    8.470676980589963E1     8.562210209720884E-1    8.476593974666724E1     2.884206576543521E-1   -2.150350202454790E1
 1.977500000000000E9     2.810068684746495E-1   -1.303651296898159E1     8.547892195441108E-1    8.438941499095633E1     8.548018939280287E-1    8.446346361530357E1     2.912256162537820E-1   -2.176380813130334E1
 1.978750000000000E9     2.836839499767261E-1   -1.339819221192039E1     8.535838071254793E-1    8.406335867158809E1     8.534627614734397E-1    8.413081171710776E1     2.937710299368066E-1   -2.204592506354604E1
 1.980000000000000E9     2.862855119802530E-1   -1.374439030938226E1     8.521495999499925E-1    8.372869467569474E1     8.524334599429341E-1    8.381482042187675E1     2.964727558378956E-1   -2.225675941496498E1
 1.981250000000000E9     2.891383941065714E-1   -1.407319065900342E1     8.509615608171250E-1    8.341219972427851E1     8.510685780028615E-1    8.346634359465430E1     2.989217876818924E-1   -2.255797455692699E1
 1.982500000000000E9     2.916524451139788E-1   -1.440947725129408E1     8.496427408402472E-1    8.307814932074827E1     8.497972387979861E-1    8.315290684688982E1     3.017426720318337E-1   -2.279745018713104E1
 1.983750000000000E9     2.945960177888547E-1   -1.474671652278661E1     8.484123737400507E-1    8.273827001733522E1     8.483670167572294E-1    8.282178307314008E1     3.042769493934008E-1   -2.307658398474130E1
 1.985000000000000E9     2.972194821973309E-1   -1.513248163518270E1     8.469749142259374E-1    8.241998973905764E1     8.471082406451129E-1    8.250562467651523E1     3.070957809909041E-1   -2.330441327201395E1
 1.986250000000000E9     2.999768652525452E-1   -1.545553852940453E1     8.457421873118529E-1    8.209228222394097E1     8.458942284131258E-1    8.215687098035892E1     3.097370504911999E-1   -2.358623286166071E1
 1.987500000000000E9     3.028647494025270E-1   -1.581447322425382E1     8.441549123716442E-1    8.175533851746582E1     8.444516211187530E-1    8.184118193495252E1     3.123860577573591E-1   -2.384837212578292E1
 1.988750000000000E9     3.054650029960225E-1   -1.617519213771106E1     8.426757831035384E-1    8.142129246241963E1     8.428943418918292E-1    8.150851911645283E1     3.151338657161550E-1   -2.413003749214512E1
 1.990000000000000E9     3.083154593313711E-1   -1.650976695627854E1     8.413460544175460E-1    8.109662284222912E1     8.419080801913594E-1    8.116267437320208E1     3.180015083776210E-1   -2.442820801421662E1
 1.991250000000000E9     3.110583665754042E-1   -1.687915590537108E1     8.397188342807482E-1    8.075827250323599E1     8.404126005117939E-1    8.083756796113812E1     3.207347252621728E-1   -2.471362232347414E1
 1.992500000000000E9     3.137675853618891E-1   -1.723410677983338E1     8.386417284735200E-1    8.042480508166645E1     8.388678170137912E-1    8.050954741825367E1     3.235612760615398E-1   -2.499937027608821E1
 1.993750000000000E9     3.167375002231541E-1   -1.759370732786121E1     8.373409463564898E-1    8.008022747845720E1     8.374766901206863E-1    8.017870540524400E1     3.262616750431679E-1   -2.525985707882452E1
 1.995000000000000E9     3.197188666283809E-1   -1.794939352701432E1     8.355762306220685E-1    7.973949890419523E1     8.357098043288567E-1    7.982600525300431E1     3.291354344232540E-1   -2.550730017491337E1
 1.996250000000000E9     3.225873182900001E-1   -1.830942997657297E1     8.341233070341876E-1    7.942419919264925E1     8.343712685528510E-1    7.947042674540650E1     3.318378586393534E-1   -2.582006303269678E1
 1.997500000000000E9     3.251395655800802E-1   -1.868304089532925E1     8.324879652048014E-1    7.905773132442771E1     8.328976402446459E-1    7.913898494650959E1     3.346087149457434E-1   -2.609607814159041E1
 1.998750000000000E9     3.278912106526062E-1   -1.903825346538819E1     8.309889156279596E-1    7.872391377380291E1     8.314037842902976E-1    7.882303367019497E1     3.374627919541910E-1   -2.639783193501389E1
 2.000000000000000E9     3.312107898792174E-1   -1.943889189347393E1     8.291789667544689E-1    7.838094202865294E1     8.299644071632319E-1    7.846683212284351E1     3.401719432999206E-1   -2.664048090712592E1
 2.001250000000000E9     3.341536530326582E-1   -1.981592141206652E1     8.278246147522180E-1    7.804860877807336E1     8.282677188058739E-1    7.812524490773946E1     3.433132908090721E-1   -2.693809287842997E1
 2.002500000000000E9     3.369520730578931E-1   -2.016109840873461E1     8.262514857961150E-1    7.769493548141696E1     8.265860651098862E-1    7.776864061005996E1     3.462384601802011E-1   -2.726398817769167E1
 2.003750000000000E9     3.396714158234620E-1   -2.054211763610101E1     8.244862329654231E-1    7.734345903462115E1     8.251304533362743E-1    7.742199656675193E1     3.489617934774423E-1   -2.756322602112830E1
 2.005000000000000E9     3.427403653987880E-1   -2.089897258991763E1     8.226832764458358E-1    7.699686639661239E1     8.235250016285335E-1    7.708813572527261E1     3.519172874433596E-1   -2.784839575076818E1
 2.006250000000000E9     3.456315094781615E-1   -2.124580393559740E1     8.213736380217315E-1    7.665281265567282E1     8.218147140486575E-1    7.672758116964928E1     3.549077502088812E-1   -2.815018615665107E1
 2.007500000000000E9     3.485538600339638E-1   -2.161002148081927E1     8.195441118647755E-1    7.632321030785452E1     8.200120659910138E-1    7.636562338082204E1     3.577357086975549E-1   -2.844861905243983E1
 2.008750000000000E9     3.515507842225189E-1   -2.199853557164957E1     8.178591118326038E-1    7.596485248078115E1     8.184463881291649E-1    7.603005946778927E1     3.609464855918365E-1   -2.876939901219252E1
 2.010000000000000E9     3.544845398828033E-1   -2.237428568125201E1     8.159774875336118E-1    7.562107508880355E1     8.163892935426582E-1    7.570640947631743E1     3.638115716356135E-1   -2.906320409296926E1
 2.011250000000000E9     3.575206781767196E-1   -2.271667405318137E1     8.143473986692402E-1    7.525066009909871E1     8.148629689477334E-1    7.535472182146839E1     3.666412317281452E-1   -2.937331298048978E1
 2.012500000000000E9     3.607843202090446E-1   -2.314966175741840E1     8.126089195345109E-1    7.490945415439451E1     8.132336159375474E-1    7.498800238300591E1     3.697722183007387E-1   -2.968779141125866E1
 2.013750000000000E9     3.638903574374086E-1   -2.353032967983439E1     8.107108102102455E-1    7.455436214909845E1     8.113970909015329E-1    7.462899341260194E1     3.726870240509942E-1   -3.003293130672530E1
 2.015000000000000E9     3.664979166100463E-1   -2.389828929638643E1     8.089724840116665E-1    7.419179148226101E1     8.095084156032892E-1    7.432034850953146E1     3.753095625953295E-1   -3.037281102850792E1
 2.016250000000000E9     3.695259851705562E-1   -2.431467370250695E1     8.072807111878151E-1    7.383034795536533E1     8.075210439485495E-1    7.394948616955359E1     3.784639954089362E-1   -3.068758256209208E1
 2.017500000000000E9     3.727772417305276E-1   -2.471212659905770E1     8.053711052759094E-1    7.349504608169185E1     8.057827804198037E-1    7.360208060023741E1     3.814548169707205E-1   -3.099875794348601E1
 2.018750000000000E9     3.757361184948289E-1   -2.507374350954786E1     8.031436868550150E-1    7.313928864403688E1     8.039215733076468E-1    7.324437138598050E1     3.846372903586177E-1   -3.131921556681437E1
 2.020000000000000E9     3.788803266983806E-1   -2.545467962886678E1     8.016811442338084E-1    7.277758938236344E1     8.018604511096917E-1    7.288190106722000E1     3.874418058062736E-1   -3.163589718080107E1
 2.021250000000000E9     3.819528586258642E-1   -2.584960835583487E1     7.995367008904305E-1    7.242667292056949E1     7.998491372259716E-1    7.253064725666650E1     3.905300600837753E-1   -3.196943387958856E1
 2.022500000000000E9     3.849546568336805E-1   -2.624424677242208E1     7.976453245360193E-1    7.206145524929806E1     7.980106904186590E-1    7.216786159563601E1     3.935630073109188E-1   -3.222064341793914E1
 2.023750000000000E9     3.882156443269620E-1   -2.663172528345152E1     7.954890890021353E-1    7.170910055389118E1     7.961747791543493E-1    7.180967216375883E1     3.967387915868425E-1   -3.260585475480686E1
 2.025000000000000E9     3.911337224035127E-1   -2.703699268818811E1     7.935515382342549E-1    7.136479426100011E1     7.942034950101385E-1    7.144420671616091E1     3.999317467072104E-1   -3.290159880510501E1
 2.026250000000000E9     3.943897711904775E-1   -2.741507427721882E1     7.915649897630719E-1    7.098093686260903E1     7.920311713860444E-1    7.108199601003666E1     4.033696919184314E-1   -3.325476244820746E1
 2.027500000000000E9     3.976905730888697E-1   -2.780186989809815E1     7.895283140534576E-1    7.062029043197091E1     7.899656143259748E-1    7.072591860484577E1     4.064778002861694E-1   -3.358367219857446E1
 2.028750000000000E9     4.008904517527332E-1   -2.822095835875402E1     7.873806557422010E-1    7.026790653091084E1     7.879767659265068E-1    7.035764987426529E1     4.095940964816244E-1   -3.388736524522748E1
 2.030000000000000E9     4.040011436584703E-1   -2.859591946547371E1     7.854052679569424E-1    6.990014904130206E1     7.856284416755861E-1    6.999644089117199E1     4.127465673705502E-1   -3.424263212381886E1
 2.031250000000000E9     4.070373037277301E-1   -2.901020944958048E1     7.831840661797136E-1    6.953157602410808E1     7.837515051309025E-1    6.961697832682501E1     4.157461541731788E-1   -3.460577840647757E1
 2.032500000000000E9     4.101796884963195E-1   -2.941551564481952E1     7.810693063319716E-1    6.916445093517655E1     7.814185167232598E-1    6.926255151782026E1     4.189651196093617E-1   -3.493745850154134E1
 2.033750000000000E9     4.134361835548050E-1   -2.979455214097981E1     7.792250760718691E-1    6.881306502076428E1     7.793783358002506E-1    6.890301790938470E1     4.219294547747862E-1   -3.526806517317564E1
 2.035000000000000E9     4.167070696305426E-1   -3.022914955459640E1     7.769241145037017E-1    6.845617825260211E1     7.769161295401696E-1    6.854671510538545E1     4.254076562693100E-1   -3.560463057940767E1
 2.036250000000000E9     4.199162875939556E-1   -3.061046160634022E1     7.745147319198649E-1    6.808166727927660E1     7.752019464196450E-1    6.816199760133192E1     4.286386772850695E-1   -3.595117424711430E1
 2.037500000000000E9     4.229712212816469E-1   -3.101516602994936E1     7.724014696010825E-1    6.770864525634174E1     7.728538992882397E-1    6.780227640826375E1     4.316578698361661E-1   -3.631064051796022E1
 2.038750000000000E9     4.261219586851879E-1   -3.138874433739073E1     7.702886929961351E-1    6.733114030673863E1     7.707569480478444E-1    6.743178066283033E1     4.348535331861760E-1   -3.664385912016233E1
 2.040000000000000E9     4.294025292919127E-1   -3.186838851886177E1     7.679615556213780E-1    6.697187528788248E1     7.682970417471976E-1    6.705568656215611E1     4.381827506530935E-1   -3.699325976801158E1
 2.041250000000000E9     4.326465254597994E-1   -3.227657522041473E1     7.654927449983902E-1    6.659526005949760E1     7.661838146618286E-1    6.668076109069116E1     4.413934389941771E-1   -3.735995155051370E1
 2.042500000000000E9     4.356747156051461E-1   -3.266459974579978E1     7.630506538001045E-1    6.622914917460979E1     7.636366572633847E-1    6.631311108091444E1     4.447165330424696E-1   -3.769953782136226E1
 2.043750000000000E9     4.390017236284882E-1   -3.307781281613925E1     7.610805521021110E-1    6.586317870383401E1     7.614020594649159E-1    6.593636042137521E1     4.478113992853663E-1   -3.805681293387306E1
 2.045000000000000E9     4.424188394805520E-1   -3.350454639458243E1     7.583955339328251E-1    6.549589940588345E1     7.588305482472147E-1    6.557798703920298E1     4.510208704296244E-1   -3.840146487917117E1
 2.046250000000000E9     4.454688436541198E-1   -3.391224220236076E1     7.561596417062331E-1    6.509515679214060E1     7.566952776505849E-1    6.519491602879596E1     4.542728803444243E-1   -3.877216334985914E1
 2.047500000000000E9     4.487802194721022E-1   -3.426886378916907E1     7.538002792433093E-1    6.471871637028909E1     7.541217884886028E-1    6.482835187745602E1     4.575927592887759E-1   -3.912779024591474E1
 2.048750000000000E9     4.520125923336935E-1   -3.470067308035591E1     7.510163942968735E-1    6.436357347591748E1     7.518623934717940E-1    6.445882699488436E1     4.606817328067857E-1   -3.949523147148300E1
 2.050000000000000E9     4.554861491266460E-1   -3.515509516261934E1     7.489183939926499E-1    6.400028773756962E1     7.494992070064412E-1    6.406334449148365E1     4.641146972676950E-1   -3.984524236690289E1
 2.051250000000000E9     4.590613071899989E-1   -3.557897876725281E1     7.463963105394934E-1    6.362036572570023E1     7.466009164743923E-1    6.368354240520900E1     4.674185452878116E-1   -4.021242767654648E1
 2.052500000000000E9     4.625324510670920E-1   -3.599986697455955E1     7.444067721978188E-1    6.324499163302279E1     7.440819811070351E-1    6.333286211581417E1     4.704709242739277E-1   -4.056862925972856E1
 2.053750000000000E9     4.662404967564059E-1   -3.641852472073948E1     7.422121149789858E-1    6.287183592258494E1     7.417280141560090E-1    6.292285327720880E1     4.737717372398177E-1   -4.094084297385476E1
 2.055000000000000E9     4.702421864922512E-1   -3.688703488943588E1     7.400779601998820E-1    6.252021924605224E1     7.391714732124434E-1    6.255336439814040E1     4.769605958118189E-1   -4.132229040243102E1
 2.056250000000000E9     4.747073316110964E-1   -3.735700589900284E1     7.391527577511663E-1    6.219847187879672E1     7.365615803074221E-1    6.217919888170223E1     4.804740650707482E-1   -4.166853088401984E1
 2.057500000000000E9     4.810221863582826E-1   -3.776748163319396E1     7.383346051420865E-1    6.196296415669718E1     7.336910752545633E-1    6.180240891952855E1     4.837412691009911E-1   -4.200833643319493E1
 2.058750000000000E9     4.866869501086815E-1   -3.812497757727078E1     7.372728428938023E-1    6.177549740113996E1     7.315238106522839E-1    6.140715390671889E1     4.866389235194564E-1   -4.239258061105168E1
 2.060000000000000E9     4.895285846545664E-1   -3.857376409969346E1     7.339531587611162E-1    6.135939057885429E1     7.285263774784443E-1    6.102680509324315E1     4.900533816349127E-1   -4.276305036190303E1
 2.061250000000000E9     4.928312339646634E-1   -3.897963473568351E1     7.313822996162843E-1    6.099872382379632E1     7.257890940355318E-1    6.066335894480741E1     4.932874473457551E-1   -4.314098978506890E1
 2.062500000000000E9     4.988319509778912E-1   -3.941552612577144E1     7.300226218703899E-1    6.074985251794099E1     7.229854214847805E-1    6.027239578493104E1     4.966049873486779E-1   -4.351548198265071E1
 2.063750000000000E9     5.022258150618729E-1   -3.989464527920011E1     7.279185257566746E-1    6.040819833804904E1     7.202547727199503E-1    5.987538726558899E1     5.000854678982932E-1   -4.389643468188807E1
 2.065000000000000E9     5.045182852646489E-1   -4.029379678707765E1     7.239737684564906E-1    5.993098945377579E1     7.174897327257668E-1    5.949429811129407E1     5.034345303225171E-1   -4.427552657044514E1
 2.066250000000000E9     5.101678590411352E-1   -4.072951254504947E1     7.228501157133216E-1    5.969126105611313E1     7.146837124029120E-1    5.911176406774646E1     5.067418662738745E-1   -4.463107294490811E1
 2.067500000000000E9     5.157839092357207E-1   -4.112771508983016E1     7.212595715205444E-1    5.950619074784228E1     7.118444435526469E-1    5.869949150401884E1     5.101600105171131E-1   -4.497180482767615E1
 2.068750000000000E9     5.162268924972538E-1   -4.162983804049587E1     7.169339249587617E-1    5.889738447305732E1     7.089953862973845E-1    5.833141821046595E1     5.136196169155509E-1   -4.537799775276962E1
 2.070000000000000E9     5.201065039453486E-1   -4.205494076633406E1     7.142967560682569E-1    5.856536844827264E1     7.063472167968949E-1    5.793286922147979E1     5.169284203543788E-1   -4.576556333885189E1
 2.071250000000000E9     5.240293353136535E-1   -4.247431661568980E1     7.119896983967684E-1    5.822389640132548E1     7.034358184289617E-1    5.753046465880652E1     5.205510869476961E-1   -4.614248716881259E1
 2.072500000000000E9     5.233867250406470E-1   -4.293100476833565E1     7.063459725626506E-1    5.754416203448984E1     7.006518780488722E-1    5.716578221434487E1     5.235722101401313E-1   -4.655147971633718E1
 2.073750000000000E9     5.257911712428379E-1   -4.337695475351237E1     7.029421451482335E-1    5.710204901470819E1     6.980166073979088E-1    5.678095792266961E1     5.268743505674873E-1   -4.694415801234414E1
 2.075000000000000E9     5.280586353717219E-1   -4.379291141751258E1     6.991285843662886E-1    5.666142955028277E1     6.950040829990529E-1    5.638116017312093E1     5.302790640268904E-1   -4.733676756610329E1
 2.076250000000000E9     5.300752055596034E-1   -4.422201824481175E1     6.947568515466527E-1    5.618082158170797E1     6.917043437072213E-1    5.597669895076024E1     5.335716289532001E-1   -4.774122595850843E1
 2.077500000000000E9     5.324416686282450E-1   -4.462716902575231E1     6.912532626899759E-1    5.574244027940373E1     6.889402293297940E-1    5.556581612752245E1     5.369020570517706E-1   -4.811512284405497E1
 2.078750000000000E9     5.351736516778250E-1   -4.505961469507617E1     6.876455390384569E-1    5.530669872171657E1     6.859733993329099E-1    5.520060047954523E1     5.405468945334886E-1   -4.852515598403554E1
 2.080000000000000E9     5.385042680471697E-1   -4.551531410071583E1     6.842774486151780E-1    5.488469016550864E1     6.825977607194503E-1    5.477017783513592E1     5.435486311520793E-1   -4.892054640046356E1
 2.081250000000000E9     5.414295185620780E-1   -4.592581983526068E1     6.807738679431934E-1    5.447960974228096E1     6.797442207519525E-1    5.439879597028870E1     5.468428830364199E-1   -4.933041074892513E1
 2.082500000000000E9     5.443659919929118E-1   -4.635204285023471E1     6.771354637511342E-1    5.409294336117985E1     6.767564646298173E-1    5.398361757138297E1     5.503618279112218E-1   -4.972019592155800E1
 2.083750000000000E9     5.474937565837718E-1   -4.679748419830397E1     6.737347938245000E-1    5.367195515888735E1     6.733901143171878E-1    5.358645978222360E1     5.537233999126026E-1   -5.011630807872413E1
 2.085000000000000E9     5.509170827114752E-1   -4.724148115186991E1     6.704546850773538E-1    5.326438341135584E1     6.703853953186364E-1    5.320017057418598E1     5.570962949205449E-1   -5.052375631705510E1
 2.086250000000000E9     5.542282990738779E-1   -4.767889252665754E1     6.673078036909784E-1    5.286724578203918E1     6.670599475071478E-1    5.279959405983714E1     5.602827459235514E-1   -5.093142118788104E1
 2.087500000000000E9     5.577119238211834E-1   -4.816299542892227E1     6.643016198464924E-1    5.250514192644578E1     6.638626492406161E-1    5.240200199729392E1     5.635294336763312E-1   -5.134839219201551E1
 2.088750000000000E9     5.621876985668172E-1   -4.866786209297351E1     6.621639793923312E-1    5.213535066688505E1     6.607125336438883E-1    5.201815002011521E1     5.667534510613936E-1   -5.176370985023247E1
 2.090000000000000E9     5.658569478544008E-1   -4.911559083377130E1     6.590020069237658E-1    5.179053620708530E1     6.575582107766589E-1    5.161761939936610E1     5.701476732892694E-1   -5.217470187243116E1
 2.091250000000000E9     5.702395827848966E-1   -4.958449580751257E1     6.567518416808691E-1    5.145541096915435E1     6.540686793130395E-1    5.122944387781718E1     5.739450377787647E-1   -5.257804904483267E1
 2.092500000000000E9     5.745020901409542E-1   -5.009578477005063E1     6.540547139825054E-1    5.115384723408568E1     6.508318402853626E-1    5.082577308553747E1     5.768808198832631E-1   -5.298681450846073E1
 2.093750000000000E9     5.779499668090972E-1   -5.056934134698180E1     6.506327459637911E-1    5.080212566047418E1     6.476845555222422E-1    5.041314603918460E1     5.803229621899206E-1   -5.339456696466457E1
 2.095000000000000E9     5.801488788303490E-1   -5.100001562461961E1     6.462464389460965E-1    5.028561264395388E1     6.439877594205279E-1    5.002209349309916E1     5.834851130033396E-1   -5.381063982605841E1
 2.096250000000000E9     5.827130805504330E-1   -5.140784776595755E1     6.421447387795851E-1    4.981691460805817E1     6.406070657741884E-1    4.960587787822491E1     5.868397854179135E-1   -5.423557233340327E1
 2.097500000000000E9     5.860869413233664E-1   -5.185966188357742E1     6.384740488436284E-1    4.942702341385447E1     6.371603456529547E-1    4.919776165584138E1     5.900016626989716E-1   -5.462481854449193E1
 2.098750000000000E9     5.895154769468216E-1   -5.232795455392117E1     6.350434104230500E-1    4.904278708199063E1     6.337199100683834E-1    4.881912046160886E1     5.932774569027434E-1   -5.504577749823165E1
 2.100000000000000E9     5.922789494457710E-1   -5.274524936434351E1     6.310982115663978E-1    4.859559174631597E1     6.301279365874630E-1    4.838548534499406E1     5.966918265191165E-1   -5.545235181663288E1
 2.101250000000000E9     5.957496441184222E-1   -5.324690636026171E1     6.279723981646024E-1    4.820783661585028E1     6.265689077084083E-1    4.799550742240201E1     5.998707099131333E-1   -5.590978316009078E1
 2.102500000000000E9     6.019652367975215E-1   -5.377141697710755E1     6.264010593742371E-1    4.813975217077439E1     6.230846307470959E-1    4.759227338880886E1     6.033852515329254E-1   -5.630743200302004E1
 2.103750000000000E9     6.146989897456636E-1   -5.409445070785385E1     6.260580992169479E-1    4.886621603138710E1     6.199140184348179E-1    4.721658577688103E1     6.070944043112976E-1   -5.677478053449203E1
 2.105000000000000E9     6.057299551205015E-1   -5.467153572137359E1     6.174511655315260E-1    4.704289999031889E1     6.157642657837263E-1    4.676207671980022E1     6.101792129914615E-1   -5.714901017823077E1
 2.106250000000000E9     6.080338437958657E-1   -5.503549955300838E1     6.122398921965562E-1    4.652703976272186E1     6.119949858353135E-1    4.635880463393342E1     6.135100603362588E-1   -5.754663703692239E1
 2.107500000000000E9     6.104886620015912E-1   -5.551045170177173E1     6.080608244051070E-1    4.604956067039578E1     6.083869007511608E-1    4.594083387555528E1     6.167911464621129E-1   -5.797728536836242E1
 2.108750000000000E9     6.132731507403583E-1   -5.595533624665149E1     6.037453029323924E-1    4.558971443421217E1     6.045303148261866E-1    4.554527207983723E1     6.199273469320998E-1   -5.838044477355434E1
 2.110000000000000E9     6.162392739895303E-1   -5.640261478480651E1     5.996848981731671E-1    4.517572038104186E1     6.008468911619129E-1    4.513275578107162E1     6.231364219591776E-1   -5.881929696698077E1
 2.111250000000000E9     6.196863311657937E-1   -5.686082225593316E1     5.958161369210436E-1    4.478995827456467E1     5.970527565576039E-1    4.473868426932293E1     6.265183965626246E-1   -5.925916586352378E1
 2.112500000000000E9     6.224889580334567E-1   -5.732295978561964E1     5.918206359569335E-1    4.437033555047116E1     5.929258349246855E-1    4.432475068593813E1     6.296453388737573E-1   -5.966965262360490E1
 2.113750000000000E9     6.259212650241164E-1   -5.778961643502408E1     5.880554358863016E-1    4.395016234856751E1     5.893889754561220E-1    4.393322090162751E1     6.328457460231448E-1   -6.009911135571750E1
 2.115000000000000E9     6.290138830429038E-1   -5.827686616415717E1     5.839490244990430E-1    4.354309884912809E1     5.854631160412027E-1    4.351042821892636E1     6.361681192552694E-1   -6.052017095164341E1
 2.116250000000000E9     6.324011659099972E-1   -5.871046645298560E1     5.800524742621965E-1    4.314892104514927E1     5.816826856046101E-1    4.313327117684363E1     6.392725032404440E-1   -6.096178279263196E1
 2.117500000000000E9     6.354493530499941E-1   -5.921473111419901E1     5.758623505639107E-1    4.272006373565505E1     5.777279497296923E-1    4.270784645534360E1     6.426457389593913E-1   -6.138347643802705E1
 2.118750000000000E9     6.387653938114474E-1   -5.968118725991797E1     5.719414541020184E-1    4.234732989460452E1     5.737635258828123E-1    4.231180256079929E1     6.456348293742818E-1   -6.181875068858712E1
 2.120000000000000E9     6.416858961778518E-1   -6.017033638513547E1     5.678333803887283E-1    4.193343486068462E1     5.699213795839252E-1    4.192704166766322E1     6.487981428189648E-1   -6.223242654731651E1
 2.121250000000000E9     6.450129216311997E-1   -6.064408886896607E1     5.637736705512844E-1    4.153303434732126E1     5.658956698547970E-1    4.151338097511658E1     6.517940003615155E-1   -6.268132333859816E1
 2.122500000000000E9     6.481461383302440E-1   -6.108989833060692E1     5.600613824759154E-1    4.110889364640749E1     5.620210650981061E-1    4.110374039210156E1     6.549394395907624E-1   -6.311528310188398E1
 2.123750000000000E9     6.513775754278510E-1   -6.158550792427351E1     5.558497724639760E-1    4.071420804748089E1     5.577616846961428E-1    4.072048780485851E1     6.582705812182895E-1   -6.353862492093178E1
 2.125000000000000E9     6.542145614682047E-1   -6.207422826280326E1     5.519233246819034E-1    4.031936096756812E1     5.538365670046971E-1    4.032203406104292E1     6.612958724725196E-1   -6.398460697655268E1
 2.126250000000000E9     6.573111927104268E-1   -6.252096505687199E1     5.477652251867519E-1    3.990971216605547E1     5.495574729713502E-1    3.991734664106112E1     6.643373244322923E-1   -6.441368115411059E1
 2.127500000000000E9     6.605890489627297E-1   -6.300369679523570E1     5.435651865469802E-1    3.953887471486450E1     5.455735373292684E-1    3.954240966326423E1     6.675912061095244E-1   -6.485712705703916E1
 2.128750000000000E9     6.635862659825483E-1   -6.348597742416359E1     5.394293629561502E-1    3.914365682289515E1     5.414987450325690E-1    3.913093768861107E1     6.706051636730301E-1   -6.528751497739847E1
 2.130000000000000E9     6.666283695770074E-1   -6.394753396831813E1     5.353898515779725E-1    3.873029617796581E1     5.373537146904808E-1    3.871154202739562E1     6.737851209833274E-1   -6.573335725469902E1
 2.131250000000000E9     6.696029131620979E-1   -6.441673990390724E1     5.311720643810672E-1    3.835571978361167E1     5.331770672062230E-1    3.832677277624870E1     6.765761447584431E-1   -6.618104321690059E1
 2.132500000000000E9     6.724854494980614E-1   -6.490087328005730E1     5.269022870822857E-1    3.796658904101266E1     5.292223170122499E-1    3.795629763777290E1     6.796891605447501E-1   -6.659640779983162E1
 2.133750000000000E9     6.758289923803827E-1   -6.539078259543990E1     5.226653986343225E-1    3.757400862209186E1     5.245022296748519E-1    3.755812078473758E1     6.828142041399305E-1   -6.706218516845615E1
 2.135000000000000E9     6.787936236686829E-1   -6.584476631863082E1     5.183826786771693E-1    3.719390367668895E1     5.207189394052939E-1    3.717566780719397E1     6.855749220036202E-1   -6.749958350619188E1
 2.136250000000000E9     6.816307871867577E-1   -6.632862048959268E1     5.142443333723342E-1    3.681504669527117E1     5.161574848206651E-1    3.676701409809246E1     6.886081591641049E-1   -6.790749432504732E1
 2.137500000000000E9     6.847051110487823E-1   -6.683444023336477E1     5.101621148619978E-1    3.642199036217863E1     5.122529031811144E-1    3.635965492303131E1     6.916788821256770E-1   -6.838252968360712E1
 2.138750000000000E9     6.875050033941963E-1   -6.729675772518770E1     5.058145445308644E-1    3.601063218606443E1     5.079345365927899E-1    3.600645652236301E1     6.946071068166234E-1   -6.881581267685957E1
 2.140000000000000E9     6.905799890953664E-1   -6.778081229207143E1     5.012243173950507E-1    3.562365114143571E1     5.038115226198108E-1    3.556918298642277E1     6.975376889715539E-1   -6.926199287063852E1
 2.141250000000000E9     6.934301564067024E-1   -6.827575216162455E1     4.972258421626422E-1    3.529403140226614E1     4.993255919448294E-1    3.521457173248456E1     7.004183316768662E-1   -6.971352674605647E1
 2.142500000000000E9     6.963993805506810E-1   -6.874476537258811E1     4.927611193753818E-1    3.490276211875938E1     4.951632481268322E-1    3.481252748615272E1     7.031020955954540E-1   -7.015214861931662E1
 2.143750000000000E9     6.991996496221260E-1   -6.922222945703547E1     4.884549713500801E-1    3.449745975307682E1     4.905531278910268E-1    3.444589515508618E1     7.060721060654003E-1   -7.059912405792195E1
 2.145000000000000E9     7.020775818418590E-1   -6.970600357798421E1     4.843077137673571E-1    3.414698203715884E1     4.864676232997818E-1    3.408061453189633E1     7.087235710868579E-1   -7.102471933997005E1
 2.146250000000000E9     7.049250583698152E-1   -7.016830801250836E1     4.799521335336303E-1    3.377019897782789E1     4.821659334183093E-1    3.367533355371837E1     7.114905735046512E-1   -7.146072462009556E1
 2.147500000000000E9     7.078422489774441E-1   -7.065954585548066E1     4.753393255496490E-1    3.338395406946002E1     4.778777782442759E-1    3.330178518075056E1     7.144116408875639E-1   -7.190235145101377E1
 2.148750000000000E9     7.107570523817724E-1   -7.115353987290787E1     4.711936575765999E-1    3.301506207631074E1     4.732041392023102E-1    3.295340463377288E1     7.174081243156187E-1   -7.236454167751799E1
 2.150000000000000E9     7.133816296560287E-1   -7.164278324537379E1     4.667448982938331E-1    3.265292575594422E1     4.691545979591595E-1    3.255222262346523E1     7.200840734216853E-1   -7.281251986057067E1
 2.151250000000000E9     7.161548595802381E-1   -7.209593012162365E1     4.623196073236618E-1    3.228140802985298E1     4.645672656831769E-1    3.219792558896422E1     7.225887068272985E-1   -7.326127140834747E1
 2.152500000000000E9     7.189508357392566E-1   -7.259986723005223E1     4.580401414508000E-1    3.191270874658257E1     4.603367083659031E-1    3.180667694342495E1     7.252114207789921E-1   -7.369885629918485E1
 2.153750000000000E9     7.214513780359897E-1   -7.308270554914297E1     4.534003618317457E-1    3.154499886816101E1     4.558704730413153E-1    3.143930555766169E1     7.281395636241964E-1   -7.415493734114214E1
 2.155000000000000E9     7.244081347372425E-1   -7.353751491015151E1     4.491988220480131E-1    3.117186877627555E1     4.514346777682117E-1    3.108026622932477E1     7.306127003351183E-1   -7.458545107625072E1
 2.156250000000000E9     7.271612222545634E-1   -7.403693951897932E1     4.447107600890418E-1    3.081207854236315E1     4.469677979852998E-1    3.071485362647036E1     7.333730481490397E-1   -7.502770495582720E1
 2.157500000000000E9     7.296187405385323E-1   -7.450575769031249E1     4.403485068305530E-1    3.044571658357262E1     4.425666592408891E-1    3.034929421344537E1     7.360668364510473E-1   -7.549045941738413E1
 2.158750000000000E9     7.322553284383936E-1   -7.500205727494502E1     4.358577846684327E-1    3.009295677633595E1     4.378591463797326E-1    2.998510093198187E1     7.387338938446133E-1   -7.592279984808530E1
 2.160000000000000E9     7.350113468321483E-1   -7.547603297975529E1     4.313292832484315E-1    2.975673194177353E1     4.336707688268624E-1    2.961578165594888E1     7.412049057087342E-1   -7.636839581342836E1
 2.161250000000000E9     7.374384686843671E-1   -7.596862654174036E1     4.265893023795729E-1    2.938532571557763E1     4.288966103512158E-1    2.926315204450608E1     7.436532094116315E-1   -7.680337231063227E1
 2.162500000000000E9     7.399994399563361E-1   -7.645521771856195E1     4.225723277302059E-1    2.903554396120188E1     4.247898272011257E-1    2.888507288958893E1     7.461746494226521E-1   -7.726741493621661E1
 2.163750000000000E9     7.421633445328136E-1   -7.692183097944961E1     4.180809821101938E-1    2.869180653441805E1     4.200402112624225E-1    2.856257000735483E1     7.488190277613863E-1   -7.770420243744245E1
 2.165000000000000E9     7.449781563648888E-1   -7.740237420580038E1     4.132715371034338E-1    2.834235880732696E1     4.154906139291580E-1    2.822581823568273E1     7.517360921181407E-1   -7.816220273745785E1
 2.166250000000000E9     7.476861928154205E-1   -7.788770464975003E1     4.089597017742602E-1    2.802991420721101E1     4.108336856518534E-1    2.787179476903636E1     7.539467354188288E-1   -7.862233614056100E1
 2.167500000000000E9     7.501095386488807E-1   -7.837200413379415E1     4.043960771678203E-1    2.764427559402882E1     4.063604643370915E-1    2.749805087147027E1     7.563367147861733E-1   -7.907510395012304E1
 2.168750000000000E9     7.524600006257151E-1   -7.885482331488139E1     3.999282992109533E-1    2.730959383865805E1     4.018262816711374E-1    2.718286761391835E1     7.588511309270621E-1   -7.950876144710712E1
 2.170000000000000E9     7.546506465166635E-1   -7.932080439283823E1     3.954688357136149E-1    2.698110636571057E1     3.972647403641892E-1    2.687322532108720E1     7.613081548694803E-1   -7.995883102086486E1
 2.171250000000000E9     7.572365214426613E-1   -7.981042183728181E1     3.909773207481048E-1    2.666533227055139E1     3.925790300144349E-1    2.651625188549301E1     7.636037381783882E-1   -8.040751178777586E1
 2.172500000000000E9     7.595552219270487E-1   -8.028975460606057E1     3.863169173502899E-1    2.633021803588672E1     3.881811493487909E-1    2.618365028665442E1     7.658147668691250E-1   -8.085961744407895E1
 2.173750000000000E9     7.620314436938281E-1   -8.077006033298906E1     3.818901357003677E-1    2.597988232626506E1     3.836080810988775E-1    2.586376629494451E1     7.682528074257462E-1   -8.130560787837898E1
 2.175000000000000E9     7.640809609488646E-1   -8.122818441003230E1     3.773669698810190E-1    2.567828926562068E1     3.790667164662158E-1    2.551732635059211E1     7.704601106342246E-1   -8.176515675425996E1
 2.176250000000000E9     7.664681349812754E-1   -8.173663602854650E1     3.726768571628630E-1    2.534715913312122E1     3.745694079597298E-1    2.521046467284150E1     7.726563477707225E-1   -8.219111372438719E1
 2.177500000000000E9     7.687540381210233E-1   -8.219443441539097E1     3.681383004874007E-1    2.502743792826052E1     3.697735847733850E-1    2.489701300157637E1     7.749499153509740E-1   -8.265113514465691E1
 2.178750000000000E9     7.711745942695296E-1   -8.270645355000731E1     3.636924182492168E-1    2.472603303066760E1     3.653108209252313E-1    2.457568003309498E1     7.770596033783864E-1   -8.310657571714458E1
 2.180000000000000E9     7.731130677327723E-1   -8.316605282470034E1     3.591330525762314E-1    2.441088877283271E1     3.607089260064102E-1    2.426831762748249E1     7.792784453116266E-1   -8.353357426444852E1
 2.181250000000000E9     7.754564046134708E-1   -8.365697761053755E1     3.544826056792456E-1    2.413963255188578E1     3.561120239688463E-1    2.397967154504321E1     7.814785368294336E-1   -8.397523372040528E1
 2.182500000000000E9     7.773937531002468E-1   -8.412850124190430E1     3.499735795233639E-1    2.380848466823364E1     3.516425765729993E-1    2.365853613681840E1     7.836387053022725E-1   -8.443772963387862E1
 2.183750000000000E9     7.799005070749315E-1   -8.459718666068738E1     3.456151357419012E-1    2.349158319987923E1     3.470574003871003E-1    2.337811818643150E1     7.857464050818992E-1   -8.487465056649486E1
 2.185000000000000E9     7.820901037015576E-1   -8.506591373896774E1     3.407785221728317E-1    2.323030666360229E1     3.424566714997907E-1    2.306373500571238E1     7.878164215825412E-1   -8.533470766346089E1
 2.186250000000000E9     7.842174819881500E-1   -8.555128836697736E1     3.363725855060919E-1    2.295798426647656E1     3.376992874935033E-1    2.279072657590453E1     7.901176041219891E-1   -8.575587813608402E1
 2.187500000000000E9     7.860844934417892E-1   -8.601443977339993E1     3.315912229496524E-1    2.267502779458401E1     3.332937829437388E-1    2.249783085911281E1     7.920061361363924E-1   -8.621512663826108E1
 2.188750000000000E9     7.880232976681103E-1   -8.648652586233676E1     3.271740224411653E-1    2.240585943619365E1     3.286137957251034E-1    2.220709429899973E1     7.937892019195245E-1   -8.667424051133949E1
 2.190000000000000E9     7.903247598427784E-1   -8.696324814442701E1     3.224389203095496E-1    2.211960532059111E1     3.240978213370133E-1    2.194710452539990E1     7.959481470449429E-1   -8.710249961640571E1
 2.191250000000000E9     7.918056607964733E-1   -8.745040822855589E1     3.181830697209023E-1    2.183795290485323E1     3.193922238620321E-1    2.169602678763703E1     7.979313740240225E-1   -8.754239509569028E1
 2.192500000000000E9     7.937890156827674E-1   -8.789440054902684E1     3.135539264530172E-1    2.156379939992744E1     3.148763278916500E-1    2.140035326495623E1     7.997072021905760E-1   -8.796882838890389E1
 2.193750000000000E9     7.957009012838235E-1   -8.837930346017234E1     3.088420700239256E-1    2.129478212206001E1     3.102864130404420E-1    2.115492352499575E1     8.016921119968148E-1   -8.841647426025837E1
 2.195000000000000E9     7.979319596698199E-1   -8.884938553766148E1     3.044471855719607E-1    2.107967342954853E1     3.059124017329888E-1    2.090271708174391E1     8.035421788214434E-1   -8.886984527194146E1
 2.196250000000000E9     7.999475717245874E-1   -8.929836245804562E1     2.997875884412340E-1    2.083448122581754E1     3.012635800414237E-1    2.069231294139350E1     8.053046136012245E-1   -8.929896076061250E1
 2.197500000000000E9     8.016668473993839E-1   -8.979152955393215E1     2.954247268109498E-1    2.059672695768236E1     2.967625396983236E-1    2.044302065054709E1     8.071292485256069E-1   -8.974459896456538E1
 2.198750000000000E9     8.035859060075848E-1   -9.026171126149039E1     2.908450747561567E-1    2.038301407398450E1     2.921406980335544E-1    2.021364129635693E1     8.089031387963953E-1   -9.019908768102384E1
 2.200000000000000E9     8.051708603816510E-1   -9.073382919183867E1     2.862907819372124E-1    2.015878656430543E1     2.876711200254688E-1    1.999148940193518E1     8.107301920123313E-1   -9.062017812841054E1
 2.201250000000000E9     8.071272602038793E-1   -9.118546747965776E1     2.815986932893949E-1    1.993155702742957E1     2.829799446229183E-1    1.977672071236104E1     8.124670244859082E-1   -9.105066177667105E1
 2.202500000000000E9     8.087758986276798E-1   -9.165911058212077E1     2.772763476886305E-1    1.974037458419449E1     2.786212097472714E-1    1.954871948242779E1     8.142901281119537E-1   -9.151289949091861E1
 2.203750000000000E9     8.102826566408112E-1   -9.213444107188128E1     2.726098092456337E-1    1.953140086410393E1     2.738589624019101E-1    1.939949901530916E1     8.157273725676668E-1   -9.191738917590763E1
 2.205000000000000E9     8.120968743129698E-1   -9.258526607932237E1     2.683437257343098E-1    1.931673299527523E1     2.694876396016034E-1    1.917491322245599E1     8.175125139582440E-1   -9.237790714436247E1
 2.206250000000000E9     8.138505274009714E-1   -9.304723798883154E1     2.638634051721928E-1    1.918797980703453E1     2.650383913409311E-1    1.897638871952097E1     8.192946501765852E-1   -9.282479347872270E1
 2.207500000000000E9     8.153634844360308E-1   -9.353556502634370E1     2.593470631613395E-1    1.897508254274986E1     2.605776943924243E-1    1.882386711766447E1     8.207568366794218E-1   -9.325041475645865E1
 2.208750000000000E9     8.171094173764412E-1   -9.399450179019435E1     2.548814970406134E-1    1.884263722234247E1     2.558601163305522E-1    1.869073600275327E1     8.222277087261789E-1   -9.368798852937698E1
 2.210000000000000E9     8.187485615639225E-1   -9.443742102750284E1     2.504419099798729E-1    1.870475222424921E1     2.515524185854299E-1    1.856832902529693E1     8.240932819654017E-1   -9.412544393270042E1
 2.211250000000000E9     8.202375420986838E-1   -9.489710988859856E1     2.460710182474228E-1    1.856472677254952E1     2.471586736893213E-1    1.840357450272279E1     8.255399998005420E-1   -9.455952217707903E1
 2.212500000000000E9     8.217274465536571E-1   -9.534838427721179E1     2.416114863441200E-1    1.842905487182203E1     2.426093200696964E-1    1.823847602883617E1     8.267868306259466E-1   -9.498383019720936E1
 2.213750000000000E9     8.232521807618178E-1   -9.582313687900940E1     2.371937514702873E-1    1.836468491744828E1     2.383863658515885E-1    1.818642557124398E1     8.283935342592321E-1   -9.542903581075261E1
 2.215000000000000E9     8.246938190935591E-1   -9.628821240320428E1     2.327719790660359E-1    1.826505690636702E1     2.339157001171752E-1    1.807806724818222E1     8.296441036356391E-1   -9.586377909758227E1
 2.216250000000000E9     8.263115165424839E-1   -9.675443885176819E1     2.287969134071795E-1    1.823727740092682E1     2.295026699179705E-1    1.798220186433951E1     8.314730488947191E-1   -9.626266462303082E1
 2.217500000000000E9     8.277475010749749E-1   -9.718823397228076E1     2.246289182875524E-1    1.823684046811038E1     2.250053234508144E-1    1.790755710454050E1     8.329098857685702E-1   -9.670492413471150E1
 2.218750000000000E9     8.299065417531772E-1   -9.768019534722880E1     2.235671325214946E-1    1.902760064390268E1     2.206694631474644E-1    1.788264748964749E1     8.342763152579128E-1   -9.714562031442590E1
 2.220000000000000E9     8.343557561368405E-1   -9.816971350004579E1     2.244145223416217E-1    2.419011563080979E1     2.163767725488854E-1    1.783570901717779E1     8.354505866787163E-1   -9.755789910446869E1
 2.221250000000000E9     8.358453218185327E-1   -9.859333674039431E1     2.185876191269474E-1    2.480202449154578E1     2.121211519852894E-1    1.782336470742489E1     8.372749623255855E-1   -9.798729781585547E1
 2.222500000000000E9     8.369483897712116E-1   -9.903517462027264E1     2.131988826730622E-1    2.483115381630908E1     2.076468751812783E-1    1.774591962251463E1     8.383838770366036E-1   -9.842627686728670E1
 2.223750000000000E9     8.379868646173635E-1   -9.947075149916878E1     2.082985867116064E-1    2.486809318468055E1     2.034685153830730E-1    1.780162755526098E1     8.397156290056197E-1   -9.884025739705103E1
 2.225000000000000E9     8.395287024316551E-1   -9.990039960901636E1     2.037216561558426E-1    2.493205175213244E1     1.991076874658453E-1    1.784820960752221E1     8.408210029467728E-1   -9.928672904671120E1
 2.226250000000000E9     8.403950640989031E-1   -1.003679040959109E2     1.995268584839720E-1    2.494154922415530E1     1.948817399460151E-1    1.788891098046058E1     8.419966029961812E-1   -9.970177106510486E1
 2.227500000000000E9     8.417780291280123E-1   -1.007980976693677E2     1.952299030607664E-1    2.512229988263009E1     1.906240396323387E-1    1.801103074071563E1     8.430446676664848E-1   -1.001115434215549E2
 2.228750000000000E9     8.427151467257095E-1   -1.012462383710926E2     1.908371885486125E-1    2.526968171788569E1     1.865725172554329E-1    1.807486403977063E1     8.444873442211829E-1   -1.005360551183352E2
 2.230000000000000E9     8.434364189792962E-1   -1.017028263216604E2     1.872364371338698E-1    2.532148020490383E1     1.823267595153287E-1    1.814336921736681E1     8.454629040481060E-1   -1.009490218264305E2
 2.231250000000000E9     8.447099873668741E-1   -1.021393013506898E2     1.832960262097431E-1    2.543062271732419E1     1.782539536603724E-1    1.830604462395147E1     8.466038254776354E-1   -1.013783867304768E2
 2.232500000000000E9     8.458769641249771E-1   -1.025887037711998E2     1.790503004747008E-1    2.566768776983270E1     1.742577668968272E-1    1.841096692924836E1     8.477598166970020E-1   -1.017941348225009E2
 2.233750000000000E9     8.470225664835933E-1   -1.030429435625788E2     1.748991518097023E-1    2.593184498041040E1     1.701045583593840E-1    1.863154983163739E1     8.488432387617121E-1   -1.022100233561798E2
 2.235000000000000E9     8.477814213303703E-1   -1.034685990522540E2     1.707464691283634E-1    2.612048531296070E1     1.660144904666120E-1    1.881331129275459E1     8.497550901122468E-1   -1.026338256460636E2
 2.236250000000000E9     8.486576755348761E-1   -1.039086141726964E2     1.668249792576437E-1    2.645230391516114E1     1.621621327414523E-1    1.912250631525012E1     8.508192447491871E-1   -1.030557795213783E2
 2.237500000000000E9     8.496517540520802E-1   -1.043723704166956E2     1.625263674666164E-1    2.676704815089506E1     1.579280286237691E-1    1.944218584234615E1     8.517875089832506E-1   -1.034549992134681E2
 2.238750000000000E9     8.502206356995072E-1   -1.048168789306928E2     1.585662949663753E-1    2.707256749212679E1     1.542475216523921E-1    1.973898132136245E1     8.530600037947348E-1   -1.038453728103239E2
 2.240000000000000E9     8.516957641694733E-1   -1.052242641689904E2     1.546210861545079E-1    2.755800475097528E1     1.503113828085943E-1    2.012025999370634E1     8.535711059227574E-1   -1.042788776019266E2
 2.241250000000000E9     8.523794442298469E-1   -1.056609130732366E2     1.507427178811896E-1    2.800560079792870E1     1.465285140944214E-1    2.050492986990261E1     8.545379923341664E-1   -1.046663726421676E2
 2.242500000000000E9     8.531812481765889E-1   -1.061122502759319E2     1.467366783525564E-1    2.852525613896215E1     1.427100582665699E-1    2.096791652614041E1     8.554970395770174E-1   -1.050932874414359E2
 2.243750000000000E9     8.543821185681985E-1   -1.065420970769268E2     1.431067406975188E-1    2.905746346560215E1     1.390005137594285E-1    2.145775918727308E1     8.566897472790089E-1   -1.055074690030158E2
 2.245000000000000E9     8.552553968524681E-1   -1.069728366732716E2     1.394145866617063E-1    2.965963666126046E1     1.352571873163099E-1    2.198636574814783E1     8.575485515436395E-1   -1.059422267947689E2
 2.246250000000000E9     8.555354311323041E-1   -1.074297670095368E2     1.358998503553930E-1    3.029781454920858E1     1.315821416975725E-1    2.254911742734627E1     8.584065660090923E-1   -1.063036266943515E2
 2.247500000000000E9     8.562387128688478E-1   -1.078377806879139E2     1.324515882037713E-1    3.099314676963795E1     1.279845717260912E-1    2.324767885658070E1     8.591205598680678E-1   -1.067169337628403E2
 2.248750000000000E9     8.572378228127512E-1   -1.082780015613925E2     1.286915872656287E-1    3.167224877172393E1     1.244562757876377E-1    2.398800951687116E1     8.602026063951365E-1   -1.071335943864200E2
 2.250000000000000E9     8.579684236587547E-1   -1.086974526561770E2     1.251942553595106E-1    3.248989024635063E1     1.211856765709103E-1    2.476229113699169E1     8.607551041548996E-1   -1.075132849203667E2
 2.251250000000000E9     8.586508431807647E-1   -1.091351094271137E2     1.219232810410191E-1    3.336200178487899E1     1.176298489419388E-1    2.550785343634393E1     8.612878090270100E-1   -1.079413507617988E2
 2.252500000000000E9     8.591837144139767E-1   -1.095498940593577E2     1.185231976631987E-1    3.423517352802371E1     1.143239050439141E-1    2.631527627676707E1     8.621990259566347E-1   -1.083275056888464E2
 2.253750000000000E9     8.599067797584723E-1   -1.099779495991654E2     1.153353699532788E-1    3.524483519768347E1     1.110839994906269E-1    2.733921888223563E1     8.628193000660784E-1   -1.087358911215715E2
 2.255000000000000E9     8.607560267691734E-1   -1.103981772399312E2     1.121935440109576E-1    3.635032701822375E1     1.079020600909041E-1    2.840311470099607E1     8.638289346557010E-1   -1.091553536305374E2
 2.256250000000000E9     8.612220431438008E-1   -1.108364578605244E2     1.092080476395737E-1    3.763049609952234E1     1.048947671983225E-1    2.948982053431168E1     8.643224523298125E-1   -1.095320552659173E2
 2.257500000000000E9     8.620679188819553E-1   -1.112476248715643E2     1.061099682227801E-1    3.873289415951849E1     1.017089475276442E-1    3.060766464640477E1     8.646807654996503E-1   -1.099340098587141E2
 2.258750000000000E9     8.623087916278970E-1   -1.116696593655209E2     1.031947888190370E-1    4.012969314086370E1     9.882821173412476E-2    3.199243209217441E1     8.655823919647857E-1   -1.103273373964311E2
 2.260000000000000E9     8.628796137006388E-1   -1.120791956997774E2     1.005864459975209E-1    4.145862233712953E1     9.612437046806122E-2    3.337949915268546E1     8.662421696141969E-1   -1.107177949029954E2
 2.261250000000000E9     8.636276955481069E-1   -1.125357603682686E2     9.782704820850686E-2    4.307730583886156E1     9.360033940345312E-2    3.492506469389746E1     8.667481401799264E-1   -1.111006968816896E2
 2.262500000000000E9     8.642348853945059E-1   -1.129437364845666E2     9.525481949133967E-2    4.468179785801178E1     9.091797851122933E-2    3.650920895157809E1     8.671724942965070E-1   -1.114968212803187E2
 2.263750000000000E9     8.646267368195664E-1   -1.133574394205615E2     9.290599111083084E-2    4.632356366510496E1     8.839426218647727E-2    3.813540485604674E1     8.680288412165433E-1   -1.118944428875393E2
 2.265000000000000E9     8.650667101437184E-1   -1.137610737647986E2     9.053085334344528E-2    4.818676607335018E1     8.612409196518160E-2    3.993682914504290E1     8.683903984061783E-1   -1.122806125551252E2
 2.266250000000000E9     8.657987033210913E-1   -1.142005953549683E2     8.844656467074059E-2    5.008558306065233E1     8.406767089840375E-2    4.186992582759077E1     8.688928486258943E-1   -1.126670157578166E2
 2.267500000000000E9     8.662795455451426E-1   -1.145742875983049E2     8.652383023119078E-2    5.206128177053858E1     8.208196102640611E-2    4.378558440423835E1     8.697150285783859E-1   -1.130659594997152E2
 2.268750000000000E9     8.665767420813197E-1   -1.150144725520762E2     8.469628293416337E-2    5.412406419295679E1     8.024164308635724E-2    4.596545528509297E1     8.699635701969533E-1   -1.134317410957685E2
 2.270000000000000E9     8.668877199626160E-1   -1.154304654671371E2     8.318629410074123E-2    5.633866569371504E1     7.859005085255671E-2    4.814498206063863E1     8.704013813239689E-1   -1.138468711137613E2
 2.271250000000000E9     8.675504554839110E-1   -1.158446073390296E2     8.176666805625202E-2    5.857985552406589E1     7.707181446642215E-2    5.051630082331639E1     8.709386278486522E-1   -1.141944690944391E2
 2.272500000000000E9     8.674459466857701E-1   -1.162561636846935E2     8.049092813779246E-2    6.090656139495378E1     7.557663029446580E-2    5.283729606207035E1     8.710157075191485E-1   -1.145957164440411E2
 2.273750000000000E9     8.680194140672312E-1   -1.166469824220430E2     7.971321730487362E-2    6.341335569195852E1     7.459369099687621E-2    5.543316100448175E1     8.715424092108153E-1   -1.149667471649409E2
 2.275000000000000E9     8.685329842095967E-1   -1.170416472947849E2     7.886930674473452E-2    6.577595936832506E1     7.365966741139543E-2    5.791732130208236E1     8.717730625576240E-1   -1.153589771294342E2
 2.276250000000000E9     8.691196887564656E-1   -1.174593843058990E2     7.839121596278209E-2    6.835971326729076E1     7.291564348116289E-2    6.039757877635472E1     8.722662845486514E-1   -1.157424798272836E2
 2.277500000000000E9     8.694429755724545E-1   -1.178723624363652E2     7.807729674432674E-2    7.084456194887642E1     7.243410977080926E-2    6.312687930189836E1     8.728332423858655E-1   -1.161176125653429E2
 2.278750000000000E9     8.698334290510351E-1   -1.182858059447105E2     7.806168804880494E-2    7.347698106161724E1     7.199980326287603E-2    6.584437512404071E1     8.729074968325320E-1   -1.165102676012076E2
 2.280000000000000E9     8.701937486856667E-1   -1.186770932270845E2     7.789225341361072E-2    7.612268277816223E1     7.200650746315426E-2    6.843577871658951E1     8.732472750398067E-1   -1.168701986173668E2
 2.281250000000000E9     8.703467264393017E-1   -1.190740993526973E2     7.811032449114799E-2    7.875883213701449E1     7.211319987117483E-2    7.105811231251144E1     8.733856631999134E-1   -1.172416361522975E2
 2.282500000000000E9     8.703281699874134E-1   -1.194702496758388E2     7.865377701007573E-2    8.130528162389126E1     7.230845548028694E-2    7.358787636461523E1     8.734325471161037E-1   -1.176132017291087E2
 2.283750000000000E9     8.706713145445402E-1   -1.198860997530280E2     7.930235773247488E-2    8.378768495691646E1     7.293734959244663E-2    7.622187799005329E1     8.738800299859917E-1   -1.179927723882409E2
 2.285000000000000E9     8.711663751903335E-1   -1.202708160454004E2     8.026302174163524E-2    8.611938827304230E1     7.345314210995138E-2    7.875229332601252E1     8.743117276169698E-1   -1.183629900573062E2
 2.286250000000000E9     8.713065364149762E-1   -1.206682695418850E2     8.108802099434881E-2    8.848988893069249E1     7.422185224638282E-2    8.113988338949271E1     8.741913967536984E-1   -1.187483202674540E2
 2.287500000000000E9     8.716591481227334E-1   -1.210587003435403E2     8.259479803273787E-2    9.078175687745237E1     7.526784274211741E-2    8.351082131586780E1     8.744892593327134E-1   -1.191266896596972E2
 2.288750000000000E9     8.717917628573835E-1   -1.214759722959488E2     8.395269881919326E-2    9.293972319393458E1     7.655765824827623E-2    8.580522670158463E1     8.747547674223916E-1   -1.194842084633278E2
 2.290000000000000E9     8.717816001131348E-1   -1.218399447877263E2     8.539140659915234E-2    9.497736479787862E1     7.768835674767761E-2    8.784279740257739E1     8.746925775318755E-1   -1.198275143413053E2
 2.291250000000000E9     8.722712704163912E-1   -1.222437054505835E2     8.705207056797996E-2    9.705164637549676E1     7.920824300769923E-2    8.995440140825768E1     8.753248071692460E-1   -1.202358630057295E2
 2.292500000000000E9     8.722843304362466E-1   -1.226254541137295E2     8.878368803779102E-2    9.888487851461534E1     8.075065032309502E-2    9.181474774655331E1     8.750153109477555E-1   -1.205989538626663E2
 2.293750000000000E9     8.724576065370122E-1   -1.230176960073080E2     9.076384477445670E-2    1.006266616686300E2     8.261018099610738E-2    9.372659633705875E1     8.757090212171699E-1   -1.209376988201420E2
 2.295000000000000E9     8.722997044370107E-1   -1.234107746804908E2     9.278905978679049E-2    1.023348801147583E2     8.425503886562420E-2    9.546238776006625E1     8.754793462817652E-1   -1.212798977216847E2
 2.296250000000000E9     8.725362268669730E-1   -1.237960776707926E2     9.503435601472371E-2    1.039928146808775E2     8.606430782493767E-2    9.714088027436597E1     8.757920822263413E-1   -1.216408162635614E2
 2.297500000000000E9     8.725928588832261E-1   -1.241961004365015E2     9.743851782562563E-2    1.054903510770850E2     8.803113190246746E-2    9.869202500883965E1     8.757541226333808E-1   -1.220307020854912E2
 2.298750000000000E9     8.727831825202617E-1   -1.245670109054911E2     9.971288455466487E-2    1.069145279637278E2     9.023464440076753E-2    1.000676435013981E2     8.759758049324012E-1   -1.223695692289550E2
 2.300000000000000E9     8.726971222890704E-1   -1.249434792629385E2     1.021569428792053E-1    1.081695418987459E2     9.246341603639115E-2    1.014755708367165E2     8.760338244649255E-1   -1.227427628685002E2
 2.301250000000000E9     8.727682145615453E-1   -1.253262230675573E2     1.047187329165858E-1    1.094237473708795E2     9.459738632386432E-2    1.027750419010133E2     8.760568285058927E-1   -1.230890313090539E2
 2.302500000000000E9     8.727295527366228E-1   -1.257305166439524E2     1.075495449494165E-1    1.107271083061458E2     9.699842654042094E-2    1.039879785401047E2     8.760814508387965E-1   -1.234643997217654E2
 2.303750000000000E9     8.728654026719327E-1   -1.260870410180648E2     1.101337354221767E-1    1.117495573072292E2     9.911008093150331E-2    1.050817649842539E2     8.759347259877035E-1   -1.238015560916796E2
 2.305000000000000E9     8.729701977764421E-1   -1.264703272460518E2     1.126250377133097E-1    1.127311786329117E2     1.015521099030875E-1    1.061160999961456E2     8.760007105407565E-1   -1.241497972795631E2
 2.306250000000000E9     8.729622414462862E-1   -1.268455628863031E2     1.150338851610136E-1    1.137595994812527E2     1.039186075457648E-1    1.070689925974161E2     8.758101881657270E-1   -1.245041575408427E2
 2.307500000000000E9     8.728303898581561E-1   -1.272414947140994E2     1.179734299406529E-1    1.145064586619783E2     1.062919961650004E-1    1.079649556361630E2     8.761032996706376E-1   -1.248659795854544E2
 2.308750000000000E9     8.729157529717778E-1   -1.276194022827607E2     1.204927448395633E-1    1.154405280455151E2     1.088268203635501E-1    1.087619496177638E2     8.761699213660860E-1   -1.251919824652317E2
 2.310000000000000E9     8.726711562599202E-1   -1.279851780070229E2     1.230871242427361E-1    1.161444090041577E2     1.112973806824606E-1    1.095457333676646E2     8.757073394118500E-1   -1.255570805106536E2
 2.311250000000000E9     8.728744755113840E-1   -1.283709178531240E2     1.258763425285559E-1    1.169460023545741E2     1.138284270765160E-1    1.103269906928758E2     8.759145918120008E-1   -1.258945295555067E2
 2.312500000000000E9     8.727945040775349E-1   -1.287413452610809E2     1.283430749298213E-1    1.176033527837084E2     1.164928071877763E-1    1.109006685909388E2     8.758412132962060E-1   -1.262536808517823E2
 2.313750000000000E9     8.727624642243870E-1   -1.291027871313536E2     1.310553372629999E-1    1.182662021478991E2     1.191027092967355E-1    1.115783451336423E2     8.755239012172098E-1   -1.265810298010329E2
 2.315000000000000E9     8.728412481835301E-1   -1.294600875304284E2     1.339929702101016E-1    1.189559128789653E2     1.216840583075547E-1    1.121883231054655E2     8.757502618263595E-1   -1.269306244496137E2
 2.316250000000000E9     8.730284516196841E-1   -1.298334582950824E2     1.366741263363578E-1    1.193937699871401E2     1.240794777139636E-1    1.126102737719809E2     8.757954544893990E-1   -1.272926255840535E2
 2.317500000000000E9     8.724532876428436E-1   -1.301919084842039E2     1.392126537502786E-1    1.198876814980353E2     1.268048308888127E-1    1.131253279672628E2     8.757468650599374E-1   -1.276271641026743E2
 2.318750000000000E9     8.725196259640703E-1   -1.305669864937694E2     1.418886887416717E-1    1.203834089017566E2     1.294228573746120E-1    1.135971110714092E2     8.752577855503699E-1   -1.279450393572516E2
 2.320000000000000E9     8.724230114107676E-1   -1.309314433591647E2     1.444936607534351E-1    1.209941244372133E2     1.320373861822594E-1    1.139730354153981E2     8.751609779138221E-1   -1.283142536122774E2
 2.321250000000000E9     8.725018429435784E-1   -1.313109171339603E2     1.472666453432950E-1    1.214490603929945E2     1.346179696781982E-1    1.143474762395474E2     8.750451349248511E-1   -1.286468657476825E2
 2.322500000000000E9     8.723906817728904E-1   -1.316791621607160E2     1.497546057233885E-1    1.219230127632472E2     1.375047685732349E-1    1.147737206507208E2     8.756842050789688E-1   -1.289937940378762E2
 2.323750000000000E9     8.722613008045711E-1   -1.320289941987081E2     1.521664769089680E-1    1.223117774344882E2     1.400272210605201E-1    1.150291469007869E2     8.750847549010046E-1   -1.293182966550249E2
 2.325000000000000E9     8.721105352465980E-1   -1.323971136539853E2     1.545920622620922E-1    1.227129783639485E2     1.426639330153479E-1    1.152717436273841E2     8.749766534439342E-1   -1.296362978504293E2
 2.326250000000000E9     8.723800285946707E-1   -1.327775460357662E2     1.571705798739570E-1    1.230433752672821E2     1.452137781523302E-1    1.156443323870645E2     8.749773292735018E-1   -1.299794324121322E2
 2.327500000000000E9     8.717604313406597E-1   -1.331325642439879E2     1.597770585562131E-1    1.233824084017847E2     1.480367815020489E-1    1.158175279461741E2     8.747294136790109E-1   -1.303117326233738E2
 2.328750000000000E9     8.717990827275307E-1   -1.334928394519826E2     1.620851744307775E-1    1.236492224008458E2     1.503950242523526E-1    1.160504452390379E2     8.742029291970704E-1   -1.306421381744711E2
 2.330000000000000E9     8.719811451582381E-1   -1.338442882889695E2     1.644487085820387E-1    1.239659561299747E2     1.532913774420292E-1    1.162055254175344E2     8.743806386946902E-1   -1.309807179587371E2
 2.331250000000000E9     8.718345862223545E-1   -1.342203325822688E2     1.665817321999191E-1    1.241443867262306E2     1.558361420483897E-1    1.164919987602784E2     8.738680276549317E-1   -1.313088940739234E2
 2.332500000000000E9     8.719379729646144E-1   -1.345841564010407E2     1.692893756082145E-1    1.242731742162825E2     1.582923448554092E-1    1.166900861487349E2     8.740351159248166E-1   -1.316462685966149E2
 2.333750000000000E9     8.717806373079954E-1   -1.349500203452696E2     1.715821561337429E-1    1.244481778729807E2     1.612920784306608E-1    1.167619860245414E2     8.735300953337053E-1   -1.319367558185630E2
 2.335000000000000E9     8.715807871526119E-1   -1.352730896534183E2     1.737066271268101E-1    1.246763600329124E2     1.637743063154001E-1    1.169098479148479E2     8.734871492133515E-1   -1.322920251506818E2
 2.336250000000000E9     8.712203955019315E-1   -1.356449193315175E2     1.758699539210975E-1    1.247909618243850E2     1.662592850553241E-1    1.170208402332122E2     8.733525078605172E-1   -1.326048855976719E2
 2.337500000000000E9     8.710915980391680E-1   -1.359745138050750E2     1.783519240616207E-1    1.249756700598043E2     1.688200967504036E-1    1.170646630813844E2     8.729979332958022E-1   -1.329454263795472E2
 2.338750000000000E9     8.705376870380961E-1   -1.363478970933731E2     1.807111947131093E-1    1.252140138511956E2     1.713900477899624E-1    1.171362902383023E2     8.729390065688863E-1   -1.332739057550281E2
 2.340000000000000E9     8.709098978722569E-1   -1.367005987019542E2     1.832546583137389E-1    1.252529599581851E2     1.739433300775912E-1    1.172499555251420E2     8.725761868336483E-1   -1.335641341550705E2
 2.341250000000000E9     8.707033894646040E-1   -1.370283210671194E2     1.859365711515871E-1    1.253141597207073E2     1.766294743768311E-1    1.172717437835761E2     8.724847882886825E-1   -1.338863632786824E2
 2.342500000000000E9     8.703241682572266E-1   -1.373893254326370E2     1.882088313872713E-1    1.253511625255068E2     1.790581848993551E-1    1.173000447954826E2     8.724680886055971E-1   -1.342165775944305E2
 2.343750000000000E9     8.701527272441119E-1   -1.377512108530717E2     1.906983207570935E-1    1.254668401791604E2     1.816754760264374E-1    1.173035574479117E2     8.718534538376348E-1   -1.345320087036519E2
 2.345000000000000E9     8.696435975711790E-1   -1.381085098068529E2     1.933749727916803E-1    1.255776971808274E2     1.840903959757000E-1    1.173676338994381E2     8.714899321818855E-1   -1.348429439080830E2
 2.346250000000000E9     8.697101513624633E-1   -1.384220224056235E2     1.959825418425883E-1    1.256427989506484E2     1.866711624167404E-1    1.173766741305331E2     8.710584813684362E-1   -1.351370502993504E2
 2.347500000000000E9     8.693206397022499E-1   -1.387669676302066E2     1.986581766221922E-1    1.257366657098071E2     1.891262660161857E-1    1.173891194537208E2     8.710071966328874E-1   -1.354679125869816E2
 2.348750000000000E9     8.693121204172809E-1   -1.391192827760751E2     2.013830160435801E-1    1.257484506456546E2     1.915618908984657E-1    1.173843776776876E2     8.710446476404174E-1   -1.358022093205488E2
 2.350000000000000E9     8.689268664338834E-1   -1.394734129293373E2     2.040288176672933E-1    1.257524074132176E2     1.942449311428920E-1    1.173575748939644E2     8.704759470236946E-1   -1.361006886003252E2
 2.351250000000000E9     8.687354957354314E-1   -1.398296674554296E2     2.066094648727518E-1    1.258082817093280E2     1.966102783337878E-1    1.173873432795994E2     8.699433451922102E-1   -1.364133321413633E2
 2.352500000000000E9     8.685925685623428E-1   -1.401376393534007E2     2.095820129932645E-1    1.258923027570878E2     1.991787128862147E-1    1.172825999401803E2     8.700103315245701E-1   -1.367220083328670E2
 2.353750000000000E9     8.678657547289024E-1   -1.405185633817538E2     2.122776818501118E-1    1.259266302676641E2     2.015888555455994E-1    1.172631629049692E2     8.699516187279993E-1   -1.370422870715802E2
 2.355000000000000E9     8.676672319101457E-1   -1.408411133662907E2     2.153016014364538E-1    1.259299585054700E2     2.041912995778611E-1    1.171992525608192E2     8.697939517536006E-1   -1.373401867339732E2
 2.356250000000000E9     8.672601944839562E-1   -1.411570790147036E2     2.182229629029832E-1    1.259541455377133E2     2.066147892682288E-1    1.171185771950991E2     8.693061210271774E-1   -1.376534311776814E2
 2.357500000000000E9     8.668525328330499E-1   -1.415316978499196E2     2.212549623866174E-1    1.259482106333114E2     2.089573885185456E-1    1.170519837569590E2     8.688155052615149E-1   -1.379379301368366E2
 2.358750000000000E9     8.668717628652624E-1   -1.418560260846357E2     2.241302751293084E-1    1.259216363159486E2     2.113450232146184E-1    1.170088582820182E2     8.686174397825480E-1   -1.382468812239074E2
 2.360000000000000E9     8.666504171607962E-1   -1.421738007489953E2     2.272335774343782E-1    1.259312554945808E2     2.136057689137614E-1    1.169146785361332E2     8.684075384279192E-1   -1.385599353336792E2
 2.361250000000000E9     8.656281986413268E-1   -1.425479415692346E2     2.301844672603005E-1    1.258949446463702E2     2.160517338086720E-1    1.168390757741747E2     8.680046680532429E-1   -1.388666142750578E2
 2.362500000000000E9     8.659265860520807E-1   -1.428536832171716E2     2.334379926597255E-1    1.258202991087004E2     2.186342265425152E-1    1.167310016195785E2     8.677302988453153E-1   -1.391659917131057E2
 2.363750000000000E9     8.652802499819210E-1   -1.431873019035833E2     2.366138697335743E-1    1.257471592603605E2     2.208611746134361E-1    1.166633572920404E2     8.675868113132712E-1   -1.394202417057223E2
 2.365000000000000E9     8.647887111575987E-1   -1.435447474519276E2     2.395829286099057E-1    1.257528467206970E2     2.232708715559407E-1    1.166097555712888E2     8.673659782867941E-1   -1.397564884180090E2
 2.366250000000000E9     8.642315958874764E-1   -1.438684698400840E2     2.429394671383753E-1    1.256359859910595E2     2.255459873257547E-1    1.164362913145806E2     8.670117804797344E-1   -1.400773297028601E2
 2.367500000000000E9     8.639375224985865E-1   -1.441909355281391E2     2.459902180699401E-1    1.255279920291087E2     2.280527285074125E-1    1.163520720605835E2     8.663839828387948E-1   -1.403617011752162E2
 2.368750000000000E9     8.637463639148415E-1   -1.445277713216565E2     2.492451803489858E-1    1.254784719306175E2     2.303300685930232E-1    1.162733929891491E2     8.662673908570219E-1   -1.406525024606838E2
 2.370000000000000E9     8.632957790247707E-1   -1.448576561470745E2     2.523315847465242E-1    1.253412233918456E2     2.326494826293468E-1    1.161303984741232E2     8.661035487562719E-1   -1.409548838989465E2
 2.371250000000000E9     8.624730722012205E-1   -1.451670090469547E2     2.555892709214039E-1    1.252673823645622E2     2.346888763116360E-1    1.159705075050628E2     8.657418552402905E-1   -1.412537425058373E2
 2.372500000000000E9     8.621916447410940E-1   -1.455086303188163E2     2.588860761529680E-1    1.251195211967709E2     2.371389838332328E-1    1.158648321952161E2     8.656093120781309E-1   -1.415430988707640E2
 2.373750000000000E9     8.616602703472517E-1   -1.458326466305502E2     2.618733108729482E-1    1.249690953147280E2     2.394313165924966E-1    1.156972478130990E2     8.650102587591040E-1   -1.418611553447154E2
 2.375000000000000E9     8.611504563106724E-1   -1.461319381637308E2     2.651512937879734E-1    1.247812779642941E2     2.417019220059113E-1    1.156081284177562E2     8.649364852973355E-1   -1.421318647843070E2
 2.376250000000000E9     8.607000161206964E-1   -1.464854044474961E2     2.683291479862241E-1    1.246042411803141E2     2.439771955228406E-1    1.154799247084601E2     8.645841097838717E-1   -1.424560604521542E2
 2.377500000000000E9     8.601822349446948E-1   -1.468023411513897E2     2.714247247145771E-1    1.244267389013592E2     2.460396774293959E-1    1.153097176074248E2     8.639700650635677E-1   -1.427308495451354E2
 2.378750000000000E9     8.599162506851968E-1   -1.471199550650989E2     2.744323485178062E-1    1.242705420479563E2     2.483716815414948E-1    1.151754325554909E2     8.638908642938402E-1   -1.430172710962139E2
 2.380000000000000E9     8.593642824808381E-1   -1.474314775399667E2     2.776396368495611E-1    1.240733857630686E2     2.504463952648253E-1    1.149982958000093E2     8.636250267484498E-1   -1.433460335174603E2
 2.381250000000000E9     8.586635140794397E-1   -1.477507243213554E2     2.804501414159780E-1    1.238719650240360E2     2.527384289387793E-1    1.148697243817238E2     8.631568113919909E-1   -1.436226840226657E2
 2.382500000000000E9     8.582462765288116E-1   -1.480896073100543E2     2.835608418679105E-1    1.236555880898098E2     2.548956007016862E-1    1.147223895649510E2     8.629033954824378E-1   -1.439134157675279E2
 2.383750000000000E9     8.582502673261928E-1   -1.484010576769555E2     2.865785823151684E-1    1.233626750139583E2     2.571099246852767E-1    1.145500846454904E2     8.623192647620693E-1   -1.442092615426494E2
 2.385000000000000E9     8.574183096480071E-1   -1.486958066942907E2     2.892843465790941E-1    1.232137363518783E2     2.593351394095154E-1    1.143956056237106E2     8.622816756634414E-1   -1.444933620635688E2
 2.386250000000000E9     8.567751892843992E-1   -1.490187695636739E2     2.919223887913176E-1    1.229519112447910E2     2.612754546247105E-1    1.142440358426093E2     8.615697406633491E-1   -1.447954030620917E2
 2.387500000000000E9     8.562632990494371E-1   -1.493167790513612E2     2.947988355108646E-1    1.227308940585196E2     2.635855608351207E-1    1.140826787309968E2     8.613715973585360E-1   -1.450995899938205E2
 2.388750000000000E9     8.560197589835357E-1   -1.496239500267779E2     2.974866339368072E-1    1.224710033673794E2     2.656364376675422E-1    1.139055063821353E2     8.611243924263479E-1   -1.453692755026919E2
 2.390000000000000E9     8.553769994055408E-1   -1.499327443311279E2     2.999838446263207E-1    1.221924910661247E2     2.674875728143783E-1    1.137024425241290E2     8.603232660932179E-1   -1.456707374800176E2
 2.391250000000000E9     8.549755581764132E-1   -1.502354342695351E2     3.028178600273532E-1    1.219199734327731E2     2.696459744157186E-1    1.135253502315798E2     8.599775787565643E-1   -1.459679312203164E2
 2.392500000000000E9     8.544890827205655E-1   -1.505606907656983E2     3.054860165239610E-1    1.216387592001633E2     2.718221873706669E-1    1.133864598476239E2     8.595493527202293E-1   -1.462353737923025E2
 2.393750000000000E9     8.540422698745243E-1   -1.508667638915093E2     3.079650219595292E-1    1.214019964749797E2     2.737874692580723E-1    1.132493160686061E2     8.592882636997938E-1   -1.465045485160209E2
 2.395000000000000E9     8.533043563567935E-1   -1.511592892837221E2     3.104546628754988E-1    1.210770985785940E2     2.759034945392891E-1    1.130329396064450E2     8.589010847880093E-1   -1.467922684845169E2
 2.396250000000000E9     8.528427964710683E-1   -1.514285702225608E2     3.127148228585544E-1    1.208412542220502E2     2.776903236511593E-1    1.128254142631649E2     8.582027457937140E-1   -1.470902791200736E2
 2.397500000000000E9     8.524342551686058E-1   -1.517723283675252E2     3.152738092181134E-1    1.205576930432784E2     2.796282411811450E-1    1.126929074339354E2     8.575470578599623E-1   -1.473743353477590E2
 2.398750000000000E9     8.519770945877480E-1   -1.520913846418117E2     3.176590237960603E-1    1.202362934743500E2     2.816820736413468E-1    1.124673807665508E2     8.572338230848385E-1   -1.476449151091105E2
 2.400000000000000E9     8.514970010330577E-1   -1.523399840594785E2     3.194878362275391E-1    1.200065681553067E2     2.835783480448449E-1    1.122700086048352E2     8.567687210102699E-1   -1.479464463889762E2
 2.401250000000000E9     8.509538527673157E-1   -1.526681744079355E2     3.219566084103456E-1    1.196899284804445E2     2.856232149119267E-1    1.121287233755072E2     8.561687122810893E-1   -1.482078225500563E2
 2.402500000000000E9     8.507159879918312E-1   -1.529404334900691E2     3.239598818813748E-1    1.194450632454174E2     2.875800161291682E-1    1.119644504458298E2     8.557645209579253E-1   -1.484991750045612E2
 2.403750000000000E9     8.498795744426458E-1   -1.532463389183636E2     3.260975301309649E-1    1.191044011070011E2     2.895201960295651E-1    1.117498302625325E2     8.553845813551136E-1   -1.487607146995410E2
 2.405000000000000E9     8.497189258748625E-1   -1.535522660075002E2     3.281121263991670E-1    1.188541306582002E2     2.914416019770675E-1    1.115779317865290E2     8.545728933484954E-1   -1.490619582690853E2
 2.406250000000000E9     8.491982618661077E-1   -1.538312069889903E2     3.299684611305539E-1    1.185800077285113E2     2.932077173943784E-1    1.113826381923643E2     8.540495265971617E-1   -1.493128395736702E2
 2.407500000000000E9     8.486537595958000E-1   -1.541221432146314E2     3.316791015507583E-1    1.182666140756277E2     2.952030543570233E-1    1.112059170766955E2     8.540706931954828E-1   -1.495889297573052E2
 2.408750000000000E9     8.482231627091132E-1   -1.544321780852660E2     3.336901128316953E-1    1.180268561441813E2     2.969731473316034E-1    1.109943533414950E2     8.532267722245642E-1   -1.498709284508512E2
 2.410000000000000E9     8.479727539642707E-1   -1.546842688079903E2     3.351586092136829E-1    1.177626273798690E2     2.987089193387434E-1    1.108291781482320E2     8.525467014616989E-1   -1.501388364198732E2
 2.411250000000000E9     8.472503344255784E-1   -1.549995812912083E2     3.370012802226429E-1    1.174686803872287E2     3.005349607193385E-1    1.106069167380912E2     8.520484553550743E-1   -1.504315456458574E2
 2.412500000000000E9     8.467191169489063E-1   -1.552799316591194E2     3.388279390971545E-1    1.172212506206030E2     3.025903111856849E-1    1.104169581268527E2     8.516683313915557E-1   -1.506761986825461E2
 2.413750000000000E9     8.462076835975086E-1   -1.555748924583789E2     3.405267575090744E-1    1.170072555749520E2     3.042829841492258E-1    1.102176648882490E2     8.511117972989325E-1   -1.509526612852213E2
 2.415000000000000E9     8.459303011446672E-1   -1.558858311178683E2     3.428578473962541E-1    1.167611790502794E2     3.060492186685898E-1    1.100255672751433E2     8.507252933829047E-1   -1.512348125358396E2
 2.416250000000000E9     8.456059449204226E-1   -1.561556121079601E2     3.447854319227793E-1    1.165822267627914E2     3.078424524713332E-1    1.098600637576667E2     8.502780620940752E-1   -1.515125099736306E2
 2.417500000000000E9     8.454710724450444E-1   -1.564501077070595E2     3.467727314428234E-1    1.163259779169709E2     3.097263868368977E-1    1.096170806774683E2     8.496408553578511E-1   -1.517703672935971E2
 2.418750000000000E9     8.448121582758696E-1   -1.567597366871264E2     3.480828481521132E-1    1.160521306824973E2     3.115222296951379E-1    1.094431570435657E2     8.493818640455684E-1   -1.519932272231815E2
 2.420000000000000E9     8.445057055201968E-1   -1.570272207968164E2     3.499979672543103E-1    1.158579649279822E2     3.130026628952206E-1    1.092497726410060E2     8.487230631841385E-1   -1.522937008261354E2
 2.421250000000000E9     8.435661242565052E-1   -1.572872243645216E2     3.515185759941412E-1    1.156115463089931E2     3.146869726570185E-1    1.090450928207750E2     8.478496349569319E-1   -1.525739867658556E2
 2.422500000000000E9     8.431872519216973E-1   -1.576039691815268E2     3.528842854544320E-1    1.153902936837795E2     3.164395545582037E-1    1.088872008335610E2     8.473837325205926E-1   -1.528027050460168E2
 2.423750000000000E9     8.425917668948105E-1   -1.579166028460019E2     3.543054796030654E-1    1.151718484037411E2     3.180513000509378E-1    1.086659048197395E2     8.469045572369853E-1   -1.530701919689971E2
 2.425000000000000E9     8.427103180234887E-1   -1.581512715696401E2     3.555142447785371E-1    1.149496993188290E2     3.199845242722056E-1    1.084739592396556E2     8.465791399989708E-1   -1.533094583367912E2
 2.426250000000000E9     8.420088590940389E-1   -1.584544179127997E2     3.569913133910004E-1    1.147638766637709E2     3.214999165289419E-1    1.082827832739084E2     8.463092098353037E-1   -1.535812877797657E2
 2.427500000000000E9     8.417530833833249E-1   -1.587304590554457E2     3.585245352756494E-1    1.145433649796530E2     3.231178468289721E-1    1.080401780082988E2     8.455900946308124E-1   -1.538564582187450E2
 2.428750000000000E9     8.414380315734318E-1   -1.590247880727207E2     3.598539964858913E-1    1.143178573573238E2     3.248844170958495E-1    1.078816509558988E2     8.448983338082903E-1   -1.540887604230730E2
 2.430000000000000E9     8.409314190943179E-1   -1.593015880450629E2     3.615988416234249E-1    1.141756791049494E2     3.266085993838593E-1    1.076923581730487E2     8.446697012245099E-1   -1.543600309549821E2
 2.431250000000000E9     8.406728806705548E-1   -1.595817693241249E2     3.632400206815585E-1    1.139925619446668E2     3.281013494021739E-1    1.074671897329227E2     8.442479507167171E-1   -1.546110193074897E2
 2.432500000000000E9     8.399587183978822E-1   -1.598789774869628E2     3.650387703710579E-1    1.138035866517264E2     3.297569861241657E-1    1.073041538894419E2     8.435650287634661E-1   -1.548486279622158E2
 2.433750000000000E9     8.396276557455797E-1   -1.601413096551045E2     3.670201491300644E-1    1.136227969256521E2     3.315174616301956E-1    1.070768386562968E2     8.436840523373614E-1   -1.551371769826618E2
 2.435000000000000E9     8.390478165453980E-1   -1.604454517204261E2     3.685722182185590E-1    1.134465685825832E2     3.328699137110416E-1    1.069395429563725E2     8.426252492504397E-1   -1.553642858358104E2
 2.436250000000000E9     8.388343931535142E-1   -1.607088668528785E2     3.703187245532787E-1    1.132847453670944E2     3.346018899679272E-1    1.066741272612675E2     8.420113365562024E-1   -1.556268602528060E2
 2.437500000000000E9     8.383894038138929E-1   -1.610069633321126E2     3.717182731389346E-1    1.131123651447360E2     3.361929412934034E-1    1.064993716215433E2     8.417237894964761E-1   -1.558752870928492E2
 2.438750000000000E9     8.378741097374170E-1   -1.612759065728926E2     3.738135999237078E-1    1.129706339750655E2     3.374871688540744E-1    1.062921122829309E2     8.411258520017612E-1   -1.561208625657867E2
 2.440000000000000E9     8.371753363459652E-1   -1.615627983232508E2     3.753612172762332E-1    1.127937321520063E2     3.394612538449935E-1    1.061114819101953E2     8.408909818263819E-1   -1.563734158034563E2
 2.441250000000000E9     8.367627264051326E-1   -1.618289516378139E2     3.768415111063970E-1    1.126364069121062E2     3.407389802264178E-1    1.059243898679656E2     8.400136212265429E-1   -1.566339158893987E2
 2.442500000000000E9     8.364416499104063E-1   -1.621381406317815E2     3.788389306756939E-1    1.124832622842017E2     3.424245283327871E-1    1.057401284900718E2     8.394429499498101E-1   -1.568624961893292E2
 2.443750000000000E9     8.360633185820727E-1   -1.624015662406242E2     3.800387948861420E-1    1.123502278031998E2     3.439832655208419E-1    1.055118564295161E2     8.392782760583787E-1   -1.571290136822819E2
 2.445000000000000E9     8.353565961972014E-1   -1.626921995865080E2     3.815273924947872E-1    1.121941911701172E2     3.453823445673330E-1    1.053206603507117E2     8.385925633720622E-1   -1.573525475875627E2
 2.446250000000000E9     8.347719886372816E-1   -1.629711723722595E2     3.835566888549629E-1    1.120577816984424E2     3.469412999501001E-1    1.051292738337387E2     8.386043293630699E-1   -1.576035288634994E2
 2.447500000000000E9     8.342170189532063E-1   -1.632478873929344E2     3.861522428935202E-1    1.118410780353676E2     3.485726332268708E-1    1.048865092879971E2     8.384132974463223E-1   -1.578510401094391E2
 2.448750000000000E9     8.331441876458243E-1   -1.635525222472759E2     3.881281525212872E-1    1.118739710242528E2     3.498798714752015E-1    1.046999400936277E2     8.372956545844052E-1   -1.580963030373462E2
 2.450000000000000E9     8.331258463144855E-1   -1.638344653272420E2     3.890859871797427E-1    1.116062451208446E2     3.513383704631405E-1    1.044928797762771E2     8.368447863018768E-1   -1.583630565619413E2
 2.451250000000000E9     8.328147145684178E-1   -1.640995842470489E2     3.917616056617615E-1    1.114516573742945E2     3.528180911702433E-1    1.042949039544745E2     8.364893791708686E-1   -1.585728926156356E2
 2.452500000000000E9     8.323448613201003E-1   -1.643853050798155E2     3.937992658220776E-1    1.113232489778111E2     3.544266232400506E-1    1.041248809967573E2     8.361486826936042E-1   -1.588213284765782E2
 2.453750000000000E9     8.313661500120697E-1   -1.646668524139757E2     3.958781869675117E-1    1.111166047452675E2     3.558978488461585E-1    1.039253936882520E2     8.359904925890285E-1   -1.590673612902827E2
 2.455000000000000E9     8.311983681228330E-1   -1.649418689651931E2     3.976222048687963E-1    1.110309823689978E2     3.572504413955234E-1    1.036849637644056E2     8.353254412061585E-1   -1.593180077293771E2
 2.456250000000000E9     8.308087614563494E-1   -1.652192080156227E2     4.000608239816547E-1    1.109119108006422E2     3.586461345644882E-1    1.035166817242411E2     8.349739122100306E-1   -1.595377363609368E2
 2.457500000000000E9     8.296008884445762E-1   -1.654877785825084E2     4.018582820875182E-1    1.107412449445752E2     3.601478693312597E-1    1.033157760428558E2     8.346324758619602E-1   -1.597883824582767E2
 2.458750000000000E9     8.293811855286914E-1   -1.657726301554057E2     4.043225952746171E-1    1.105886475817214E2     3.617492869343618E-1    1.031042296633456E2     8.343589608849644E-1   -1.600191081793349E2
 2.460000000000000E9     8.282872532793966E-1   -1.660371344139463E2     4.063468166254873E-1    1.104224467287980E2     3.629085452289233E-1    1.029051939598704E2     8.337666888381257E-1   -1.602691336263197E2
 2.461250000000000E9     8.280844851775517E-1   -1.663146318257208E2     4.090587279238987E-1    1.102542614578102E2     3.644909342507576E-1    1.027147739005388E2     8.336248114179213E-1   -1.604942001553752E2
 2.462500000000000E9     8.270346054853636E-1   -1.666008062808906E2     4.110820100433393E-1    1.100977303480323E2     3.658697239058982E-1    1.025695841193506E2     8.330341941619211E-1   -1.607330500671823E2
 2.463750000000000E9     8.267400318951761E-1   -1.668267201427145E2     4.135024497640172E-1    1.096903412251033E2     3.671909489091089E-1    1.023215683764465E2     8.327093725939761E-1   -1.609822552061558E2
 2.465000000000000E9     8.256810689810790E-1   -1.670985187854052E2     4.161043111381642E-1    1.096136394690931E2     3.689719052198018E-1    1.020999802504162E2     8.328438261207312E-1   -1.612385612934214E2
 2.466250000000000E9     8.255187252325592E-1   -1.673863241092182E2     4.185082952471058E-1    1.094921958157059E2     3.700020841622967E-1    1.019092414894729E2     8.319969262376316E-1   -1.614749670155142E2
 2.467500000000000E9     8.248166432691212E-1   -1.676117219875157E2     4.197112484903905E-1    1.087553576310395E2     3.716067157996435E-1    1.017325014086240E2     8.318726518639969E-1   -1.616951023749806E2
 2.468750000000000E9     8.242354866607559E-1   -1.678596910248891E2     4.215135883604116E-1    1.082829735932816E2     3.730476607744114E-1    1.015108251634373E2     8.317815183020580E-1   -1.619397379785146E2
 2.470000000000000E9     8.232572082731776E-1   -1.681243874927607E2     4.242520792593436E-1    1.081266827742197E2     3.743009885166376E-1    1.012863514680027E2     8.313355247290397E-1   -1.621652544774333E2
 2.471250000000000E9     8.228230309056940E-1   -1.683183617375035E2     4.244710687315619E-1    1.073919952445700E2     3.759100133608895E-1    1.010801736440039E2     8.314602924986216E-1   -1.624280522109136E2
 2.472500000000000E9     8.247055449893715E-1   -1.682644331564280E2     4.127721494196512E-1    1.044597089426194E2     3.770686721184571E-1    1.008950407254420E2     8.306372627761512E-1   -1.627018207244568E2
 2.473750000000000E9     8.260410860086188E-1   -1.683721342134870E2     4.050401605547553E-1    1.030627860522874E2     3.785874043766796E-1    1.006549073346265E2     8.302382552129970E-1   -1.629729838939280E2
 2.475000000000000E9     8.266711757536216E-1   -1.686087775572859E2     4.007787596333474E-1    1.023247901255797E2     3.796514344851769E-1    1.004495930722050E2     8.296788668697000E-1   -1.631982454845426E2
 2.476250000000000E9     8.273343387453582E-1   -1.687877345762862E2     3.954368633996035E-1    1.015823202672173E2     3.809963906371761E-1    1.002261285582339E2     8.288931503336104E-1   -1.634674215974882E2
 2.477500000000000E9     8.278826430893074E-1   -1.690125744430484E2     3.937561452812257E-1    1.011751840763480E2     3.820302420580551E-1    1.000399107455494E2     8.284945064718932E-1   -1.636889116242889E2
 2.478750000000000E9     8.281476309160283E-1   -1.692654984137746E2     3.927512993699436E-1    1.008240971441146E2     3.835985313729305E-1    9.983699908506728E1     8.280603168961916E-1   -1.639568048590948E2
 2.480000000000000E9     8.284320927236013E-1   -1.695150462463412E2     3.908883836071198E-1    1.004906529290989E2     3.849843077228094E-1    9.959462597873370E1     8.276639776852850E-1   -1.641887406516620E2
 2.481250000000000E9     8.286872451562313E-1   -1.697372975615033E2     3.892050665559251E-1    1.001770340256491E2     3.859611068353682E-1    9.941450183629249E1     8.271262807656806E-1   -1.644264010654339E2
 2.482500000000000E9     8.280864563372229E-1   -1.699856787525858E2     3.891832594038242E-1    9.993961503434218E1     3.872004809568405E-1    9.918751896358305E1     8.266858227972979E-1   -1.646566900227579E2
 2.483750000000000E9     8.279095249706139E-1   -1.702530736288888E2     3.899907464654800E-1    9.971940503935457E1     3.886407388209145E-1    9.897307077496136E1     8.264688362769748E-1   -1.648994853373388E2
 2.485000000000000E9     8.276315296103052E-1   -1.704855363161531E2     3.907424646494816E-1    9.950990750628252E1     3.900587745029240E-1    9.878796965132840E1     8.260328848896702E-1   -1.651354017084482E2
 2.486250000000000E9     8.272195142132363E-1   -1.707380975733348E2     3.916287942560046E-1    9.931247654828728E1     3.910440471791922E-1    9.857887363505893E1     8.254898971060485E-1   -1.653576576120661E2
 2.487500000000000E9     8.267837339177322E-1   -1.709965231128502E2     3.927239084095953E-1    9.908346414834865E1     3.924363668813982E-1    9.838239785055842E1     8.253421957564363E-1   -1.655943766742126E2
 2.488750000000000E9     8.264042485615010E-1   -1.712241229750643E2     3.938655858786980E-1    9.888833098200520E1     3.933590612178058E-1    9.818298919526742E1     8.243690525239979E-1   -1.658243896371112E2
 2.490000000000000E9     8.261597732141183E-1   -1.714985352382188E2     3.948048076045313E-1    9.866902912626352E1     3.947963718329414E-1    9.796744983276069E1     8.239733099860473E-1   -1.660353449147447E2
 2.491250000000000E9     8.256470891644583E-1   -1.717581325343048E2     3.960933710860165E-1    9.846615664751823E1     3.960000307922978E-1    9.776294561656218E1     8.237447457662933E-1   -1.662953531626559E2
 2.492500000000000E9     8.253576931717912E-1   -1.719814226772617E2     3.971744665531995E-1    9.829228671537278E1     3.969012764202100E-1    9.754863857606252E1     8.233100026031970E-1   -1.665178170788794E2
 2.493750000000000E9     8.247338612314452E-1   -1.722582844666832E2     3.984617694891884E-1    9.806749853102833E1     3.983119088096011E-1    9.732052637021967E1     8.227052933743922E-1   -1.667480838316156E2
 2.495000000000000E9     8.244061435316123E-1   -1.724996411705534E2     3.995033193304191E-1    9.785812563723701E1     3.996161440990222E-1    9.714252571316570E1     8.227244144176235E-1   -1.669784536843558E2
 2.496250000000000E9     8.241144075964493E-1   -1.727463570483881E2     4.008613967310455E-1    9.765633127525629E1     4.006453331692493E-1    9.691276564181659E1     8.221158284909386E-1   -1.672134466951650E2
 2.497500000000000E9     8.234641491019540E-1   -1.729804020493719E2     4.019039943590706E-1    9.744600594336018E1     4.018087656560124E-1    9.671677255217676E1     8.214615160623339E-1   -1.674200588683315E2
 2.498750000000000E9     8.230899306358876E-1   -1.732403984468401E2     4.029012806176236E-1    9.723135948096902E1     4.029066624700390E-1    9.652575391759089E1     8.212074445125270E-1   -1.676603762177259E2
 2.500000000000000E9     8.231348493814891E-1   -1.734881249108959E2     4.042866463095346E-1    9.700801406798233E1     4.042134984347387E-1    9.630624953346161E1     8.210211458460904E-1   -1.678945506562313E2
 2.501250000000000E9     8.225280925921280E-1   -1.737054196217028E2     4.054320705120759E-1    9.683198938455078E1     4.051819570289870E-1    9.611034655424598E1     8.204417797195178E-1   -1.681182079791814E2
 2.502500000000000E9     8.220778381193568E-1   -1.739655863498807E2     4.066239876941348E-1    9.661765633316629E1     4.063154604369031E-1    9.590261808134095E1     8.200395236730984E-1   -1.683400507563135E2
 2.503750000000000E9     8.215261043266063E-1   -1.741877897206824E2     4.077207735721770E-1    9.641856791648389E1     4.074007041096014E-1    9.570593277115150E1     8.195393917812192E-1   -1.685764910793458E2
 2.505000000000000E9     8.212156401701096E-1   -1.744587367178430E2     4.089137104062521E-1    9.621785865935985E1     4.085184469536747E-1    9.550072042309577E1     8.192978305183597E-1   -1.688035167425870E2
 2.506250000000000E9     8.206898837662607E-1   -1.746853885596757E2     4.098676745946220E-1    9.601041346265190E1     4.096199194380269E-1    9.528447210962850E1     8.187551791343932E-1   -1.690022899435797E2
 2.507500000000000E9     8.202949193685456E-1   -1.749256091623828E2     4.111085917965635E-1    9.579489942159690E1     4.107665754393140E-1    9.509764012970608E1     8.182312304413299E-1   -1.692341365149709E2
 2.508750000000000E9     8.199441602418331E-1   -1.751738894025026E2     4.122885427345209E-1    9.556959899529589E1     4.118367756502364E-1    9.487236428696544E1     8.178414074740632E-1   -1.694580408167117E2
 2.510000000000000E9     8.195314123467136E-1   -1.754222099410383E2     4.133936566697917E-1    9.535650706275526E1     4.128369145573616E-1    9.467260887145802E1     8.174744957382819E-1   -1.696914916003295E2
 2.511250000000000E9     8.190136002595533E-1   -1.756324525204598E2     4.143309530455586E-1    9.517414526049542E1     4.137459599138587E-1    9.448680247102972E1     8.171204842897157E-1   -1.698979031821702E2
 2.512500000000000E9     8.187661177238162E-1   -1.758976069392897E2     4.154955037803261E-1    9.494626010664672E1     4.148976091965811E-1    9.425472348655788E1     8.165997883515480E-1   -1.701435808256111E2
 2.513750000000000E9     8.183897013265116E-1   -1.761212148813180E2     4.167125075086484E-1    9.474347801587142E1     4.159654692236493E-1    9.407556212490525E1     8.161804944601114E-1   -1.703526336525354E2
 2.515000000000000E9     8.180072267902229E-1   -1.763781601150187E2     4.176291788742176E-1    9.453244414633055E1     4.169539278037426E-1    9.386193094179788E1     8.158013567496019E-1   -1.705694153047779E2
 2.516250000000000E9     8.174549574363916E-1   -1.765953898091262E2     4.186129210007589E-1    9.433717568142555E1     4.179704883875949E-1    9.364962559362229E1     8.154508611243471E-1   -1.708073027847698E2
 2.517500000000000E9     8.170943907121918E-1   -1.768400112022734E2     4.198504503427276E-1    9.411075173970862E1     4.189408045275160E-1    9.345521286754870E1     8.150097484160449E-1   -1.710345285265288E2
 2.518750000000000E9     8.167721232146491E-1   -1.770813435528590E2     4.206998323485480E-1    9.390251015589769E1     4.199645367764525E-1    9.323381014274273E1     8.147233445536897E-1   -1.712468032509676E2
 2.520000000000000E9     8.163614150270418E-1   -1.773152967167065E2     4.218898942694219E-1    9.371098542021832E1     4.209675393253444E-1    9.302590747667904E1     8.140930809004412E-1   -1.714700376824746E2
 2.521250000000000E9     8.158436419292208E-1   -1.775600399406546E2     4.227307696536707E-1    9.348247894610843E1     4.219433936619771E-1    9.285018897133016E1     8.134209774289652E-1   -1.716686560752461E2
 2.522500000000000E9     8.156496728420096E-1   -1.778052742181349E2     4.239243140288366E-1    9.328280758561779E1     4.230609151134115E-1    9.263116360729184E1     8.135175838064322E-1   -1.719098413287737E2
 2.523750000000000E9     8.150902922516011E-1   -1.780293841803447E2     4.248115484540735E-1    9.307387816490254E1     4.238181130769093E-1    9.244527542034133E1     8.127774135184302E-1   -1.721108664407921E2
 2.525000000000000E9     8.144463084711927E-1   -1.782625461592989E2     4.255680625072620E-1    9.286025192645727E1     4.248652477958956E-1    9.222490212409245E1     8.124125461538417E-1   -1.723257001844529E2
 2.526250000000000E9     8.143413574119850E-1   -1.785135480520027E2     4.267312678378207E-1    9.262374508769661E1     4.260329884253706E-1    9.201253250398422E1     8.120721787641739E-1   -1.725607826047796E2
 2.527500000000000E9     8.142455980411814E-1   -1.787405163440924E2     4.276420446752307E-1    9.244450399743739E1     4.269638491056538E-1    9.181278292396465E1     8.115521375017134E-1   -1.727740039513959E2
 2.528750000000000E9     8.139004201662816E-1   -1.789797135752246E2     4.287361920086357E-1    9.223293853836657E1     4.278518732064568E-1    9.163405016185867E1     8.110929002245020E-1   -1.729975317797411E2
 2.530000000000000E9     8.132559909827685E-1   -1.792162844902501E2     4.295666177163200E-1    9.202562577772676E1     4.289110859025052E-1    9.141031385158543E1     8.106889599823320E-1   -1.732109041970572E2
 2.531250000000000E9     8.129097198982849E-1   -1.794329510770136E2     4.305577530098527E-1    9.180826035872472E1     4.296039680876422E-1    9.124146365069551E1     8.103496752120596E-1   -1.734339561335043E2
 2.532500000000000E9     8.126696472254629E-1   -1.796807378556280E2     4.315435055834942E-1    9.161832470356931E1     4.306439131226383E-1    9.100637406711911E1     8.100338254063977E-1   -1.736588297769951E2
 2.533750000000000E9     8.121607417600112E-1   -1.799067742028287E2     4.322640624280550E-1    9.140659376127790E1     4.316089959840901E-1    9.082981738572234E1     8.093512663317476E-1   -1.738592096047381E2
 2.535000000000000E9     8.118170364161420E-1    1.798606670903485E2     4.333340837480014E-1    9.120317272199658E1     4.324603653303477E-1    9.061748409231855E1     8.092473379926980E-1   -1.740948359205889E2
 2.536250000000000E9     8.115788737632151E-1    1.796206317326028E2     4.341441517102416E-1    9.099096371713867E1     4.333753302435924E-1    9.043188921549155E1     8.088080074721844E-1   -1.742993705137898E2
 2.537500000000000E9     8.110561246750763E-1    1.793926637024020E2     4.349840621677926E-1    9.078604377196130E1     4.342860533948527E-1    9.022095238862354E1     8.083610513331276E-1   -1.744938433506219E2
 2.538750000000000E9     8.107082700111296E-1    1.791573706837349E2     4.357218769518240E-1    9.060563143816250E1     4.351235999669977E-1    9.001636464868784E1     8.078757314789297E-1   -1.747207566566929E2
 2.540000000000000E9     8.105248255864006E-1    1.789520374205796E2     4.367090903435058E-1    9.039970723199380E1     4.359413061799661E-1    8.982344877329444E1     8.075398584534518E-1   -1.749463756751010E2
 2.541250000000000E9     8.102200122038501E-1    1.787151527345597E2     4.376551440600787E-1    9.018104148494912E1     4.368287638335422E-1    8.961537224216444E1     8.072744789575517E-1   -1.751527867727190E2
 2.542500000000000E9     8.096952362118902E-1    1.784949544602137E2     4.385521832716238E-1    8.999080863745553E1     4.377910820728850E-1    8.943670724080583E1     8.069646811014664E-1   -1.753744500936859E2
 2.543750000000000E9     8.093372070015281E-1    1.782478787911840E2     4.392233311913882E-1    8.977325494976544E1     4.388221725831264E-1    8.924822885574473E1     8.064893637383693E-1   -1.755803142953290E2
 2.545000000000000E9     8.089769626264562E-1    1.780152397610627E2     4.401608986560390E-1    8.957191201129608E1     4.395689931420795E-1    8.905427492610690E1     8.059280292860682E-1   -1.758066273401337E2
 2.546250000000000E9     8.087782155717679E-1    1.777959772074342E2     4.408905569804760E-1    8.936949437332285E1     4.405640881261416E-1    8.883770515057030E1     8.058018309758668E-1   -1.760109322892274E2
 2.547500000000000E9     8.082979293035314E-1    1.775784342923478E2     4.419069187428373E-1    8.919231698973122E1     4.413640671094718E-1    8.864875885381632E1     8.052782879918964E-1   -1.762124394691906E2
 2.548750000000000E9     8.080080850729279E-1    1.773480051079448E2     4.427545032708205E-1    8.898725123500131E1     4.420662798844424E-1    8.845257435535889E1     8.050134852893557E-1   -1.764259666673840E2
 2.550000000000000E9     8.075748309453448E-1    1.771162929526562E2     4.433839665082596E-1    8.880507878967035E1     4.430425083585338E-1    8.825191746242695E1     8.048135192055446E-1   -1.766333209492151E2
 2.551250000000000E9     8.072450465121923E-1    1.768978045584400E2     4.442076480016952E-1    8.860502891050315E1     4.438383094591584E-1    8.804793638743560E1     8.039955931738174E-1   -1.768435507480218E2
 2.552500000000000E9     8.069904470683583E-1    1.766762394093778E2     4.451402061613220E-1    8.841860216028833E1     4.448245526213359E-1    8.787235602357426E1     8.038893643834387E-1   -1.770557824234133E2
 2.553750000000000E9     8.066322450498238E-1    1.764436627001048E2     4.459158720315647E-1    8.823620398449850E1     4.456195730518490E-1    8.770381295465985E1     8.036425866190429E-1   -1.772556840888314E2
 2.555000000000000E9     8.061794853139543E-1    1.762029045905775E2     4.465291346956600E-1    8.801585925266255E1     4.462911769136901E-1    8.749188729951403E1     8.030524476949130E-1   -1.774866900076829E2
 2.556250000000000E9     8.058148710539963E-1    1.759969291549928E2     4.474545000172159E-1    8.782909250738719E1     4.472742537655515E-1    8.727906651122635E1     8.029285097061449E-1   -1.776919771823644E2
 2.557500000000000E9     8.054036810463316E-1    1.757604511446179E2     4.482587175814864E-1    8.764804261001410E1     4.478083414777849E-1    8.708352334179928E1     8.024839381787858E-1   -1.778947906508748E2
 2.558750000000000E9     8.051266871915704E-1    1.755284011267229E2     4.488943825963125E-1    8.744051915242635E1     4.486443693781660E-1    8.691042699666630E1     8.018476421943179E-1   -1.780968293016015E2
 2.560000000000000E9     8.046944485036288E-1    1.753105159492612E2     4.497049016208932E-1    8.723844356248583E1     4.495964168865805E-1    8.670311276738656E1     8.016729233481017E-1   -1.783134771094149E2
 2.561250000000000E9     8.041896712904194E-1    1.750908126367321E2     4.505465104468787E-1    8.708862236113451E1     4.503787427392337E-1    8.651164511030500E1     8.014435338351689E-1   -1.785236255319100E2
 2.562500000000000E9     8.038931359997450E-1    1.748602043578665E2     4.511999487367906E-1    8.686974385913253E1     4.510758857214653E-1    8.632716612026691E1     8.008013210078001E-1   -1.787246731868782E2
 2.563750000000000E9     8.035811356715704E-1    1.746339717368004E2     4.521435410605961E-1    8.667335248551932E1     4.520185225887965E-1    8.612726424521384E1     8.005312608070619E-1   -1.789281616975655E2
 2.565000000000000E9     8.032257659676175E-1    1.744055987753582E2     4.527717068636739E-1    8.649166888587642E1     4.527990206411726E-1    8.595321506407137E1     8.001402767607851E-1   -1.791142039610691E2
 2.566250000000000E9     8.031357878861690E-1    1.741848182141664E2     4.535193087328261E-1    8.629644729359205E1     4.535233246174304E-1    8.573270647250673E1     7.999040188791166E-1   -1.793415512661886E2
 2.567500000000000E9     8.025535878691163E-1    1.739552195666930E2     4.543508356417252E-1    8.611227017447403E1     4.544376954911311E-1    8.554151498590085E1     7.994418309565164E-1   -1.795472150010481E2
 2.568750000000000E9     8.023465094488198E-1    1.737438279938844E2     4.551838966490374E-1    8.591836050818738E1     4.551590531491743E-1    8.535177549690356E1     7.992939601545597E-1   -1.797462867877698E2
 2.570000000000000E9     8.018208823245977E-1    1.735080956352083E2     4.558827215446089E-1    8.573035822034835E1     4.559741896289138E-1    8.514521966713917E1     7.987017015124132E-1   -1.799592110932911E2
 2.571250000000000E9     8.016087782984443E-1    1.732904800734254E2     4.566920808140759E-1    8.555839688445052E1     4.565521535313343E-1    8.494042050215661E1     7.982966067652576E-1    1.798312018040518E2
 2.572500000000000E9     8.011423087091395E-1    1.730805226830406E2     4.575441669967209E-1    8.535102493963164E1     4.574572188347974E-1    8.477328894028138E1     7.980002759208151E-1    1.796279745621183E2
 2.573750000000000E9     8.008118301916809E-1    1.728569776290125E2     4.581907773357275E-1    8.518401247761069E1     4.584178714542907E-1    8.455376426191373E1     7.977293764214375E-1    1.794204216593043E2
 2.575000000000000E9     8.005868130204743E-1    1.726244809191371E2     4.590002554771151E-1    8.499736021977392E1     4.590980416073456E-1    8.439144114837825E1     7.973375204169043E-1    1.792342206554728E2
 2.576250000000000E9     8.001737714694733E-1    1.723882305499506E2     4.595823347477113E-1    8.479910972705861E1     4.598142729719122E-1    8.419411205400542E1     7.969926738874521E-1    1.790145143893764E2
 2.577500000000000E9     7.999396445941340E-1    1.721748597552006E2     4.605252553695263E-1    8.459636412716991E1     4.607304744326269E-1    8.398917127726752E1     7.964819638480434E-1    1.788120808825025E2
 2.578750000000000E9     7.995873084578452E-1    1.719604620404963E2     4.612581342723861E-1    8.442007562887264E1     4.612662844364621E-1    8.381453516492441E1     7.961532448249664E-1    1.786133856398192E2
 2.580000000000000E9     7.991429078072396E-1    1.717404953511082E2     4.619150383075844E-1    8.422855357523997E1     4.622748872011219E-1    8.361756069844432E1     7.960478533908059E-1    1.784158709780997E2
 2.581250000000000E9     7.990788032664851E-1    1.715183939069809E2     4.628051095188361E-1    8.405958987137957E1     4.629102452042907E-1    8.342583856156712E1     7.958036144357136E-1    1.782011815323674E2
 2.582500000000000E9     7.985656471060308E-1    1.712987445105492E2     4.635226540193451E-1    8.385676288874861E1     4.638186249211974E-1    8.323129231294399E1     7.953967651628977E-1    1.780135592688387E2
 2.583750000000000E9     7.982446159058154E-1    1.710937931500478E2     4.642978848758131E-1    8.367242950238888E1     4.644862979672305E-1    8.305427210358734E1     7.950183009882773E-1    1.778041480793372E2
 2.585000000000000E9     7.978912222132585E-1    1.708550605413672E2     4.649810581502528E-1    8.349643577625604E1     4.650602783419721E-1    8.283575968016622E1     7.946759928398883E-1    1.775997638585109E2
 2.586250000000000E9     7.974017288550003E-1    1.706465149564743E2     4.655770058013009E-1    8.330472781362288E1     4.659794153789879E-1    8.265977635423604E1     7.943048168524718E-1    1.774076699159260E2
 2.587500000000000E9     7.971182881762213E-1    1.704261853223288E2     4.664499461232131E-1    8.312885162300422E1     4.666014381146449E-1    8.247898436377686E1     7.939611572587019E-1    1.772051212908827E2
 2.588750000000000E9     7.970533676237933E-1    1.702293249715707E2     4.671607870705339E-1    8.294957788341783E1     4.673272094932301E-1    8.227753104150385E1     7.935314253131820E-1    1.770052735616874E2
 2.590000000000000E9     7.966346259111750E-1    1.699875021344864E2     4.678947778529151E-1    8.275373464753075E1     4.681568724406534E-1    8.209229001569639E1     7.934726229286274E-1    1.767962417670991E2
 2.591250000000000E9     7.963501255909887E-1    1.697894582956047E2     4.687046808930922E-1    8.257971492464324E1     4.688362695700224E-1    8.188985630075122E1     7.932482934090036E-1    1.765862313916865E2
 2.592500000000000E9     7.958498525260894E-1    1.695732046295237E2     4.692649405584343E-1    8.241090656373824E1     4.695965238667025E-1    8.168889785501047E1     7.928398925991508E-1    1.763972722171603E2
 2.593750000000000E9     7.956636353018020E-1    1.693555389523011E2     4.701757732210851E-1    8.220240985452948E1     4.705156967946539E-1    8.150349578272262E1     7.925972605352192E-1    1.761981267934256E2
 2.595000000000000E9     7.953857749669569E-1    1.691326652353479E2     4.708796396823510E-1    8.200645165951921E1     4.710959143689201E-1    8.130626510051320E1     7.922726167234163E-1    1.760022376498440E2
 2.596250000000000E9     7.949812119807712E-1    1.689120263131600E2     4.716388363586489E-1    8.181799680614999E1     4.714368656530942E-1    8.112772993409899E1     7.918184115621389E-1    1.758116546833217E2
 2.597500000000000E9     7.946630193958728E-1    1.687025639869981E2     4.723567712740634E-1    8.163705380196683E1     4.722454212462293E-1    8.092929269518235E1     7.916574382601189E-1    1.756089768923562E2
 2.598750000000000E9     7.942836048180156E-1    1.685032366861720E2     4.731544624856359E-1    8.144899356496289E1     4.729421221393802E-1    8.071596542789526E1     7.911549854679594E-1    1.754166618047157E2
 2.600000000000000E9     7.938200529660132E-1    1.682832452675671E2     4.739685654313931E-1    8.128641189520019E1     4.736901223344139E-1    8.056509240397263E1     7.909453742770550E-1    1.752147795694478E2
 2.601250000000000E9     7.936220233753492E-1    1.680731305611308E2     4.746015666425875E-1    8.107798040989850E1     4.742219251527555E-1    8.033973813786507E1     7.907357753308742E-1    1.750144926563652E2
 2.602500000000000E9     7.933695542831537E-1    1.678462053028676E2     4.752798847709646E-1    8.090572452896561E1     4.750897409983540E-1    8.014163728579125E1     7.904571486561710E-1    1.748103496910352E2
 2.603750000000000E9     7.928148987492103E-1    1.676358509698786E2     4.760316791644565E-1    8.069512510324128E1     4.756072786468378E-1    7.997761696771889E1     7.901373218560876E-1    1.746332140795954E2
 2.605000000000000E9     7.924998981716097E-1    1.674432424940801E2     4.767978212371168E-1    8.052196585896874E1     4.763067746618566E-1    7.976114472847158E1     7.898934728622148E-1    1.744188608404974E2
 2.606250000000000E9     7.923264072164149E-1    1.671980255859183E2     4.775558562034779E-1    8.031931486744342E1     4.769404361353163E-1    7.958704946213652E1     7.894388025342455E-1    1.742219319326892E2
 2.607500000000000E9     7.920190356887957E-1    1.669826945872184E2     4.782757685387313E-1    8.012058974827818E1     4.775502799994655E-1    7.938224263390087E1     7.890733404268782E-1    1.740171075251264E2
 2.608750000000000E9     7.918066795062187E-1    1.667970253375069E2     4.790687203645085E-1    7.994523768628140E1     4.781751729812389E-1    7.920565196976339E1     7.888549063492682E-1    1.738420867117104E2
 2.610000000000000E9     7.913781345290086E-1    1.665666601553512E2     4.795632448889332E-1    7.974537074795482E1     4.787706334918976E-1    7.901086738553144E1     7.886035592155644E-1    1.736383365495004E2
 2.611250000000000E9     7.911698583139046E-1    1.663640280527140E2     4.803554521887971E-1    7.954762394062472E1     4.795315398467975E-1    7.879798451338279E1     7.881740188436976E-1    1.734401730933706E2
 2.612500000000000E9     7.907176308231247E-1    1.661550588323428E2     4.810621896283258E-1    7.938221146863130E1     4.799094587404918E-1    7.861117428084945E1     7.879224534925153E-1    1.732401952385133E2
 2.613750000000000E9     7.903413957907232E-1    1.659390699714016E2     4.817055103166554E-1    7.915514495027060E1     4.806432238888285E-1    7.841101399728144E1     7.876666175964459E-1    1.730471032561122E2
 2.615000000000000E9     7.902824415267905E-1    1.657229563337117E2     4.824622408474741E-1    7.896788940793017E1     4.812906120779319E-1    7.819843357203885E1     7.871778055327200E-1    1.728513731393003E2
 2.616250000000000E9     7.897890524435128E-1    1.655212211695741E2     4.830749178113525E-1    7.877996094206748E1     4.818626737959588E-1    7.801670130620369E1     7.867906986751395E-1    1.726547874398518E2
 2.617500000000000E9     7.893632136543881E-1    1.652884202637618E2     4.837457468625379E-1    7.856423284939520E1     4.824105910651889E-1    7.782987393871791E1     7.866189776041488E-1    1.724638477757146E2
 2.618750000000000E9     7.894342586569654E-1    1.650957513811845E2     4.844286816666541E-1    7.836143642204591E1     4.830742272822018E-1    7.764249309564845E1     7.861580538213941E-1    1.722673794132783E2
 2.620000000000000E9     7.888035935992818E-1    1.648772247074085E2     4.849302972320216E-1    7.816352943830705E1     4.835199763194357E-1    7.743919191532312E1     7.857089660940064E-1    1.720563107281226E2
 2.621250000000000E9     7.886098226562013E-1    1.646613985161690E2     4.855918404109392E-1    7.797493159046329E1     4.843219498767635E-1    7.726594652746230E1     7.856873400449068E-1    1.718815104616357E2
 2.622500000000000E9     7.883753453616948E-1    1.644613680521969E2     4.861318506809276E-1    7.778318644917539E1     4.849454665152610E-1    7.707215422936153E1     7.855398581758761E-1    1.716777210147922E2
 2.623750000000000E9     7.880990433719034E-1    1.642524805313275E2     4.868757742851292E-1    7.757961731536210E1     4.854139599244798E-1    7.688112055483963E1     7.850984719170093E-1    1.714937383461272E2
 2.625000000000000E9     7.877861811756608E-1    1.640511403577343E2     4.875203604912300E-1    7.739008399262519E1     4.860033233944773E-1    7.669435585922810E1     7.845881468300212E-1    1.712927116444822E2
 2.626250000000000E9     7.876954584927310E-1    1.638464124831488E2     4.881747382253305E-1    7.720770587877230E1     4.864039518530693E-1    7.650328200311723E1     7.844177122389907E-1    1.710955483695593E2
 2.627500000000000E9     7.871616066880615E-1    1.636461458823738E2     4.886852685789436E-1    7.702371838242777E1     4.871618209283945E-1    7.633266190397474E1     7.842422290267765E-1    1.708911104484229E2
 2.628750000000000E9     7.867809111851631E-1    1.634371123292915E2     4.894090115541662E-1    7.681587384027038E1     4.875683107241661E-1    7.611584889549297E1     7.837320567412952E-1    1.707138719444726E2
 2.630000000000000E9     7.866426178961369E-1    1.632262337388261E2     4.899319995048818E-1    7.661598113861749E1     4.880620423225743E-1    7.594128961635894E1     7.834736518368075E-1    1.705197545310467E2
 2.631250000000000E9     7.863763918994260E-1    1.630234939132994E2     4.904335645421652E-1    7.645318262788585E1     4.887444534570599E-1    7.576190947510374E1     7.833168243632407E-1    1.703210390369030E2
 2.632500000000000E9     7.862287551099097E-1    1.628310049931086E2     4.909301527322164E-1    7.624868275938435E1     4.892160336531552E-1    7.557149574751519E1     7.830468870960819E-1    1.701395716423632E2
 2.633750000000000E9     7.861136600170016E-1    1.626069786990457E2     4.916725127298252E-1    7.603717226587591E1     4.897862543861241E-1    7.538344924771586E1     7.827016967829468E-1    1.699297649912784E2
 2.635000000000000E9     7.857781827708936E-1    1.624046553444174E2     4.920213981522761E-1    7.584902264553368E1     4.904422967599921E-1    7.520934359078814E1     7.822292167222010E-1    1.697410013087812E2
 2.636250000000000E9     7.853533863991071E-1    1.622142952491308E2     4.927937955429864E-1    7.565381691296569E1     4.909947673863613E-1    7.501395308644905E1     7.820506821716989E-1    1.695562137050921E2
 2.637500000000000E9     7.849007136272609E-1    1.620091393740621E2     4.930299229309243E-1    7.545792278630171E1     4.915686696181535E-1    7.484659734430558E1     7.817643341649962E-1    1.693668486855401E2
 2.638750000000000E9     7.849156043129686E-1    1.618247402463047E2     4.935653196117791E-1    7.527651333768725E1     4.920366928535109E-1    7.464875403928049E1     7.816069388159609E-1    1.691686537549749E2
 2.640000000000000E9     7.845850589027782E-1    1.615903845671757E2     4.941032442467254E-1    7.507491709222616E1     4.922962504809951E-1    7.445627034746163E1     7.810805285745374E-1    1.689769989053611E2
 2.641250000000000E9     7.839247663979952E-1    1.613879717249919E2     4.945517825408815E-1    7.488336994966554E1     4.928450758726681E-1    7.429606189019094E1     7.809762993943501E-1    1.687988608076143E2
 2.642500000000000E9     7.838964047981737E-1    1.612095192292724E2     4.951665394618947E-1    7.471586218135603E1     4.933547649238528E-1    7.412772960112036E1     7.805509502071282E-1    1.686178258156290E2
 2.643750000000000E9     7.838926668978009E-1    1.610133872821300E2     4.956366179803766E-1    7.452090638926522E1     4.938087616143153E-1    7.392033257467465E1     7.804659547295367E-1    1.684231542712783E2
 2.645000000000000E9     7.834720669780934E-1    1.608019145272223E2     4.962799022159621E-1    7.433329600603641E1     4.944480719902884E-1    7.374828397447864E1     7.801609641046839E-1    1.682307238257551E2
 2.646250000000000E9     7.833068938945632E-1    1.605959714962808E2     4.967679167083249E-1    7.414657757153974E1     4.948488782743421E-1    7.353256500082146E1     7.799392159206646E-1    1.680403251585210E2
 2.647500000000000E9     7.827457361127665E-1    1.603874118950127E2     4.971617233154232E-1    7.394387879453161E1     4.954721732529254E-1    7.336942336217437E1     7.797852271571002E-1    1.678543609732407E2
 2.648750000000000E9     7.826919904662573E-1    1.601944705805330E2     4.976158704096942E-1    7.375958989211867E1     4.959016767363579E-1    7.319829104305047E1     7.791758351982522E-1    1.676833650718604E2
 2.650000000000000E9     7.823172092961648E-1    1.599883565636270E2     4.981066713115183E-1    7.358536450490710E1     4.963039171618330E-1    7.299927964539134E1     7.789971554672147E-1    1.674845764355465E2
 2.651250000000000E9     7.821478602883207E-1    1.597737126512525E2     4.985335111440565E-1    7.338398801525764E1     4.967022735741857E-1    7.282435724971235E1     7.786064939229692E-1    1.673118265392959E2
 2.652500000000000E9     7.817684419291382E-1    1.595746434243564E2     4.988105883757623E-1    7.322206857940330E1     4.973348858390255E-1    7.262477172076173E1     7.784055942751884E-1    1.671145270893203E2
 2.653750000000000E9     7.816131477905941E-1    1.593833172120256E2     4.994738268570257E-1    7.304084690664841E1     4.978077132927347E-1    7.244650410745483E1     7.781968876002837E-1    1.669171935076847E2
 2.655000000000000E9     7.813817878293019E-1    1.591713587488375E2     4.998127414785329E-1    7.282810298617386E1     4.982313112443243E-1    7.227185894756960E1     7.776796108880205E-1    1.667450204903199E2
 2.656250000000000E9     7.812070497924786E-1    1.589672518179378E2     5.003733436418002E-1    7.265920861092593E1     4.989226497811154E-1    7.209220247146874E1     7.777098384000871E-1    1.665551226303711E2
 2.657500000000000E9     7.807727565390612E-1    1.587510997148511E2     5.006962994715722E-1    7.247328355958207E1     4.991042470479637E-1    7.190132637266717E1     7.772278241093346E-1    1.663676710538258E2
 2.658750000000000E9     7.806291482902968E-1    1.585723928374966E2     5.012128211963335E-1    7.226960197963575E1     4.996368391907400E-1    7.173361009879214E1     7.769865354012121E-1    1.661831675880471E2
 2.660000000000000E9     7.803456648981241E-1    1.583585274517075E2     5.016500281843538E-1    7.210768239844181E1     5.000143078102811E-1    7.155520107711993E1     7.766355244034122E-1    1.659877839779050E2
 2.661250000000000E9     7.802758345879882E-1    1.581578659942688E2     5.020010099190663E-1    7.190779295098564E1     5.006838059182069E-1    7.137122003731989E1     7.765984222247703E-1    1.658217251301078E2
 2.662500000000000E9     7.800436496095006E-1    1.579593347565527E2     5.026424322482324E-1    7.174357567584046E1     5.010445314905869E-1    7.118225387621841E1     7.762198998544467E-1    1.656120896528691E2
 2.663750000000000E9     7.799350149458897E-1    1.577441926526238E2     5.030311790799065E-1    7.154387477520051E1     5.016030178984954E-1    7.099420869871139E1     7.758901271791102E-1    1.654329226924254E2
 2.665000000000000E9     7.796097425603128E-1    1.575530244618669E2     5.035204758482827E-1    7.137772885853359E1     5.019300209305946E-1    7.082491532535175E1     7.755009331066784E-1    1.652541423124737E2
 2.666250000000000E9     7.792335742709368E-1    1.573497127554268E2     5.036923108492714E-1    7.118776402760275E1     5.025314639659967E-1    7.063564330755142E1     7.756356667801370E-1    1.650707666295686E2
 2.667500000000000E9     7.790020723277115E-1    1.571459068216903E2     5.044009329417918E-1    7.102027090307129E1     5.029061524397542E-1    7.044700072029661E1     7.752168942218961E-1    1.648822100038473E2
 2.668750000000000E9     7.789171489856268E-1    1.569482780899960E2     5.047925573319697E-1    7.082292701960573E1     5.034218155307900E-1    7.029203926406286E1     7.750488377314316E-1    1.647004985694843E2
 2.670000000000000E9     7.788424936247107E-1    1.567548657903007E2     5.051949310405679E-1    7.065005743474970E1     5.039383886439188E-1    7.010291565515637E1     7.747019691507313E-1    1.645079415886356E2
 2.671250000000000E9     7.783200017529439E-1    1.565564796397511E2     5.055660273529470E-1    7.047464075238307E1     5.045308591486228E-1    6.992945112814689E1     7.745949534176167E-1    1.643151926624374E2
 2.672500000000000E9     7.782473086869249E-1    1.563537023578627E2     5.058982977169227E-1    7.029818649134046E1     5.049033082017236E-1    6.974894796141474E1     7.744759337764564E-1    1.641393704409159E2
 2.673750000000000E9     7.778240846028289E-1    1.561587426554667E2     5.064280784222199E-1    7.012242213781931E1     5.055170727798051E-1    6.956076303225451E1     7.742690010072364E-1    1.639408505850029E2
 2.675000000000000E9     7.775589253909930E-1    1.559431842864554E2     5.068180662051559E-1    6.992649075174104E1     5.057985940344203E-1    6.939087694194571E1     7.737799314288258E-1    1.637619472909525E2
 2.676250000000000E9     7.775335795750230E-1    1.557562628388650E2     5.073831014553254E-1    6.976033844834718E1     5.062553812410427E-1    6.922256533700659E1     7.736541925111082E-1    1.636022517956696E2
 2.677500000000000E9     7.773244324168282E-1    1.555663379984647E2     5.076939046403507E-1    6.957334064206732E1     5.068195694293676E-1    6.904518007406288E1     7.733987046950439E-1    1.634142177591571E2
 2.678750000000000E9     7.771344159856131E-1    1.553775348197352E2     5.081112665139050E-1    6.942530740238448E1     5.073973905321353E-1    6.885301791459048E1     7.731982681920793E-1    1.632359345398829E2
 2.680000000000000E9     7.766363573750715E-1    1.551744514386326E2     5.084599419266093E-1    6.923914688159604E1     5.078377214498431E-1    6.868818248391916E1     7.731141389614778E-1    1.630433972875431E2
 2.681250000000000E9     7.766556715266171E-1    1.549753750970940E2     5.089841811522609E-1    6.906913287644511E1     5.079698256262428E-1    6.849234613520692E1     7.727126059372355E-1    1.628512690188426E2
 2.682500000000000E9     7.760947719241420E-1    1.547950720609931E2     5.092722542778271E-1    6.890631297890347E1     5.087077955168122E-1    6.834504919234340E1     7.725689084941597E-1    1.626797710489601E2
 2.683750000000000E9     7.762287961919717E-1    1.545767855004517E2     5.097665714394357E-1    6.871441655807503E1     5.093481250372073E-1    6.813586437724042E1     7.724008342353516E-1    1.625018175391645E2
 2.685000000000000E9     7.757079683442110E-1    1.543920676493235E2     5.100181129945137E-1    6.855119713958423E1     5.096560194742408E-1    6.797476223197319E1     7.722305753041491E-1    1.623045067163027E2
 2.686250000000000E9     7.755906454412173E-1    1.541854587090666E2     5.105535618433419E-1    6.837712794977247E1     5.098890011510577E-1    6.780115659414291E1     7.719523935671423E-1    1.621435215739293E2
 2.687500000000000E9     7.752144238236000E-1    1.539968509964443E2     5.109171881846970E-1    6.820452185438702E1     5.103153732165507E-1    6.760151882968633E1     7.717631826100191E-1    1.619461070634165E2
 2.688750000000000E9     7.750339800463475E-1    1.538178222240077E2     5.115844873536539E-1    6.805138925070295E1     5.107617553522077E-1    6.742533285276944E1     7.715897612366437E-1    1.617594303798484E2
 2.690000000000000E9     7.747481084794364E-1    1.535996093535239E2     5.117552002333111E-1    6.786729069101408E1     5.113640156749789E-1    6.726197544067519E1     7.711029120234894E-1    1.615923531619705E2
 2.691250000000000E9     7.745349677684402E-1    1.533997306416479E2     5.123099276230366E-1    6.768847281076683E1     5.116015107645204E-1    6.709017218928550E1     7.710034704946104E-1    1.613993556070894E2
 2.692500000000000E9     7.742265863757875E-1    1.532078191184090E2     5.126994808190786E-1    6.751353291270469E1     5.120215046355541E-1    6.690470878554446E1     7.708513061917163E-1    1.612272133366815E2
 2.693750000000000E9     7.741269661142672E-1    1.530221659061528E2     5.131112149151251E-1    6.734539663977043E1     5.126077009585142E-1    6.672938228233046E1     7.707835425759043E-1    1.610560799181324E2
 2.695000000000000E9     7.736772898200659E-1    1.528334625067628E2     5.134497070498796E-1    6.719503870831548E1     5.131296819385679E-1    6.653860576714450E1     7.705334780354630E-1    1.608742171112484E2
 2.696250000000000E9     7.734102196444851E-1    1.526267591664416E2     5.141165745198288E-1    6.700955942541762E1     5.133396878118618E-1    6.636751930291270E1     7.702026996103053E-1    1.607042764635425E2
 2.697500000000000E9     7.733259521986051E-1    1.524394718151690E2     5.145059411461449E-1    6.685629751647799E1     5.137796383175326E-1    6.620050413855606E1     7.699540932294916E-1    1.605142012690511E2
 2.698750000000000E9     7.729351042455416E-1    1.522419542949282E2     5.149854423103047E-1    6.667645368036408E1     5.142644633617731E-1    6.598691158431555E1     7.697246946083641E-1    1.603331269216559E2
 2.700000000000000E9     7.728878370897861E-1    1.520356954772432E2     5.154346360933852E-1    6.649721065589026E1     5.147146675888107E-1    6.580399946397397E1     7.694669546248907E-1    1.601467442987611E2
 2.701250000000000E9     7.724657478695752E-1    1.518348133107753E2     5.157956441961844E-1    6.631338124666006E1     5.151777146488608E-1    6.563935963978123E1     7.693739670965167E-1    1.599633625883650E2
 2.702500000000000E9     7.721405037421645E-1    1.516461052591203E2     5.162362878712108E-1    6.615157265892438E1     5.155688631672724E-1    6.546265915678215E1     7.693082899118776E-1    1.597897545034395E2
 2.703750000000000E9     7.720238991966916E-1    1.514557568922046E2     5.167325459791000E-1    6.598683824267401E1     5.160169107542796E-1    6.528770538111219E1     7.689754393295635E-1    1.596083031010184E2
 2.705000000000000E9     7.718463392360547E-1    1.512571148692929E2     5.171416672641024E-1    6.579306228267690E1     5.161151344697192E-1    6.506703104730610E1     7.686172995282035E-1    1.594267144844349E2
 2.706250000000000E9     7.716367054034133E-1    1.510593819050601E2     5.175985882706374E-1    6.561568145843228E1     5.167615641954945E-1    6.492042320937973E1     7.685806105529328E-1    1.592706724828097E2
 2.707500000000000E9     7.715438303167199E-1    1.508643015987441E2     5.180376532220207E-1    6.545265307016007E1     5.169900576164425E-1    6.473254002700931E1     7.685148907933030E-1    1.590695767463631E2
 2.708750000000000E9     7.712189059252182E-1    1.506738716032856E2     5.186001776616772E-1    6.525841001421760E1     5.172990368742388E-1    6.454351773708568E1     7.681438748178342E-1    1.588890040424619E2
 2.710000000000000E9     7.709583762034364E-1    1.504820555180054E2     5.190039465610065E-1    6.510984473894059E1     5.177763044965080E-1    6.435386010202784E1     7.679347043828255E-1    1.587138594191470E2
 2.711250000000000E9     7.708343558272152E-1    1.502755095614959E2     5.193582240027950E-1    6.492466340882665E1     5.182475813229818E-1    6.417008378391603E1     7.678538036666450E-1    1.585319742822151E2
 2.712500000000000E9     7.707069267591352E-1    1.500873879211958E2     5.198746404155077E-1    6.476231774611699E1     5.186122542175340E-1    6.400570207195112E1     7.676045858101294E-1    1.583444069894788E2
 2.713750000000000E9     7.704690493005487E-1    1.498889813927270E2     5.202744347937666E-1    6.456772262729682E1     5.190790957447858E-1    6.381919060691476E1     7.674896334553120E-1    1.581729947709656E2
 2.715000000000000E9     7.702823998079352E-1    1.496941091142926E2     5.205895442720324E-1    6.438814132950898E1     5.193734908542983E-1    6.363838949630532E1     7.672346146300396E-1    1.579908596148085E2
 2.716250000000000E9     7.701273654810046E-1    1.495271503880815E2     5.211230999448579E-1    6.420429648134925E1     5.199158661202763E-1    6.344243460866380E1     7.669281937694410E-1    1.578112177634093E2
 2.717500000000000E9     7.698015749802692E-1    1.493316992797111E2     5.217448414094776E-1    6.402525824253023E1     5.201661372980704E-1    6.328693936917855E1     7.666941800664986E-1    1.576339169740612E2
 2.718750000000000E9     7.695643773384702E-1    1.491434465618407E2     5.222410539164617E-1    6.384536408544749E1     5.203656527928683E-1    6.308143028382910E1     7.665491285180739E-1    1.574426669960743E2
 2.720000000000000E9     7.695276675451936E-1    1.489374759791144E2     5.227268796984390E-1    6.366281462017453E1     5.207936294382469E-1    6.293025876419100E1     7.662937302178958E-1    1.572795524063360E2
 2.721250000000000E9     7.689777797770670E-1    1.487526237221561E2     5.230577570761765E-1    6.350279573701963E1     5.211902527155354E-1    6.273994546163889E1     7.662438992774333E-1    1.570914407438123E2
 2.722500000000000E9     7.689747262066157E-1    1.485654243704344E2     5.234138873551786E-1    6.330210416181039E1     5.215475294197547E-1    6.256759204275949E1     7.659983400240030E-1    1.569220049485616E2
 2.723750000000000E9     7.687906250128603E-1    1.483780691719129E2     5.238953370607412E-1    6.313238948205753E1     5.219458666078386E-1    6.238061401330265E1     7.658249522246660E-1    1.567395241087519E2
 2.725000000000000E9     7.684305916344942E-1    1.481942148702174E2     5.243062487559504E-1    6.294176913728568E1     5.221781514084312E-1    6.220845937423018E1     7.655150275434713E-1    1.565669591479327E2
 2.726250000000000E9     7.683207743722261E-1    1.480153519538267E2     5.248007229756068E-1    6.277071344986410E1     5.226347959370004E-1    6.203206225778291E1     7.652801004323848E-1    1.563845671415547E2
 2.727500000000000E9     7.679409385105959E-1    1.478280183182936E2     5.249709828458039E-1    6.259295353664014E1     5.228525006463098E-1    6.186232872563713E1     7.651163885379485E-1    1.561972994661634E2
 2.728750000000000E9     7.676282578060468E-1    1.476302206240029E2     5.254704436061253E-1    6.241695969381758E1     5.232112234614725E-1    6.166810113122175E1     7.649252174317460E-1    1.560199505016484E2
 2.730000000000000E9     7.677499892950881E-1    1.474534810590884E2     5.257713320792019E-1    6.223213138329235E1     5.235600923253259E-1    6.151637242735342E1     7.648281224769456E-1    1.558483984794117E2
 2.731250000000000E9     7.675080665335817E-1    1.472632699286949E2     5.263158077993352E-1    6.205322149616508E1     5.239324625826339E-1    6.134064435217281E1     7.644234194275251E-1    1.556656958080122E2
 2.732500000000000E9     7.672327401520422E-1    1.470635496527379E2     5.266155362066181E-1    6.188595166633965E1     5.241591408085533E-1    6.114659851308190E1     7.644052834498920E-1    1.554991833282226E2
 2.733750000000000E9     7.670605081143723E-1    1.468839696961656E2     5.268648843657499E-1    6.169545716124281E1     5.245261210838585E-1    6.096610808649645E1     7.641998654961324E-1    1.553099945160936E2
 2.735000000000000E9     7.668793057792715E-1    1.467092878850794E2     5.273158853188240E-1    6.151712155467006E1     5.245392406551649E-1    6.080808539627902E1     7.640250539864193E-1    1.551397875132212E2
 2.736250000000000E9     7.666890940531339E-1    1.465247935189199E2     5.277471258148929E-1    6.137324612052032E1     5.250541322717068E-1    6.062402482898839E1     7.638545003372299E-1    1.549637399390071E2
 2.737500000000000E9     7.665232272339187E-1    1.463411149877068E2     5.282064097552209E-1    6.116051831930375E1     5.254537590651915E-1    6.046890475319717E1     7.634834728931147E-1    1.547990820273428E2
 2.738750000000000E9     7.662671726175889E-1    1.461472503288563E2     5.282628674488489E-1    6.096530113869623E1     5.256393718622291E-1    6.027501111198784E1     7.634521626217918E-1    1.546097400171681E2
 2.740000000000000E9     7.660206919056196E-1    1.459701324466194E2     5.288143936365312E-1    6.081479638160709E1     5.258953590116473E-1    6.009803011545490E1     7.633298279696275E-1    1.544397335754230E2
 2.741250000000000E9     7.658552045317918E-1    1.457592647770944E2     5.290197938326873E-1    6.062426146352081E1     5.262728566714081E-1    5.992503245391492E1     7.629245010751229E-1    1.542679944452511E2
 2.742500000000000E9     7.656782891895079E-1    1.455715279904433E2     5.294389922101562E-1    6.044252527693090E1     5.266838819732500E-1    5.975104030949220E1     7.628141581299059E-1    1.541049698072846E2
 2.743750000000000E9     7.656026150256836E-1    1.454023900167375E2     5.294599415826006E-1    6.026132066501437E1     5.267596995849729E-1    5.956799165092359E1     7.625223286506102E-1    1.539298657081491E2
 2.745000000000000E9     7.654331650569969E-1    1.452094132034023E2     5.301229117739695E-1    6.008430589297705E1     5.271582463071404E-1    5.939823180557636E1     7.622346421468634E-1    1.537472120587137E2
 2.746250000000000E9     7.650860264561686E-1    1.450154478017854E2     5.302660119497509E-1    5.989268630075004E1     5.273220770489351E-1    5.921631158221915E1     7.621782478810024E-1    1.535770062247526E2
 2.747500000000000E9     7.649940614696162E-1    1.448303689085510E2     5.305410127128650E-1    5.973682637683609E1     5.275957336470630E-1    5.907014539233155E1     7.617939481411529E-1    1.534196619604398E2
 2.748750000000000E9     7.648563762973059E-1    1.446503055027917E2     5.308789166012760E-1    5.954287606616786E1     5.279714086209363E-1    5.886067166999479E1     7.617224831029542E-1    1.532397637147117E2
 2.750000000000000E9     7.645855505511846E-1    1.444566832274562E2     5.309294770457937E-1    5.937050649486056E1     5.282794726451492E-1    5.869926539476483E1     7.614253855337356E-1    1.530542375812325E2
 2.751250000000000E9     7.644606869582503E-1    1.442609723197700E2     5.314338214223027E-1    5.918342049931159E1     5.283358502412696E-1    5.852438688237655E1     7.613289654032768E-1    1.528896485176514E2
 2.752500000000000E9     7.646122527809800E-1    1.440852190330343E2     5.318901829242360E-1    5.899043190007225E1     5.288747693056960E-1    5.834763594463544E1     7.610562120134712E-1    1.527158207221750E2
 2.753750000000000E9     7.643439601649387E-1    1.438949067799450E2     5.318299719878885E-1    5.882048068716111E1     5.289354370310198E-1    5.817186706157123E1     7.607466925141493E-1    1.525503118690163E2
 2.755000000000000E9     7.640492316238320E-1    1.437080907903942E2     5.323439220241919E-1    5.863145463832832E1     5.293429194255507E-1    5.798383206635517E1     7.605717586772912E-1    1.523694148826674E2
 2.756250000000000E9     7.639387141090627E-1    1.435159842938195E2     5.324403149783857E-1    5.844817764999146E1     5.296421172430067E-1    5.781497864119630E1     7.607083171077259E-1    1.522012469356422E2
 2.757500000000000E9     7.639397410804835E-1    1.433318892261578E2     5.325674238920818E-1    5.827695502545458E1     5.297286127724204E-1    5.766191153889567E1     7.602840396724577E-1    1.520123266918060E2
 2.758750000000000E9     7.635785241759201E-1    1.431491361533851E2     5.329513587473143E-1    5.810325029982648E1     5.301048807762108E-1    5.746254224150093E1     7.600426908991716E-1    1.518438178522718E2
 2.760000000000000E9     7.634845222618792E-1    1.429647654163560E2     5.333041837041663E-1    5.792217559979282E1     5.305453504494796E-1    5.732223226155417E1     7.598772788537811E-1    1.516726032570124E2
 2.761250000000000E9     7.631393536363316E-1    1.427844099004656E2     5.333114690098522E-1    5.774283752910186E1     5.307678482841386E-1    5.714723797075418E1     7.598800053546516E-1    1.514898088929675E2
 2.762500000000000E9     7.632109779570317E-1    1.425720077755666E2     5.336270794520300E-1    5.757352798832760E1     5.309223337345519E-1    5.696709260163568E1     7.595886732725240E-1    1.513104097500051E2
 2.763750000000000E9     7.630398650680550E-1    1.424046270203024E2     5.340480099512925E-1    5.740132093735807E1     5.311266754974172E-1    5.678080126432206E1     7.595529101506054E-1    1.511443548282389E2
 2.765000000000000E9     7.631190430564615E-1    1.422159957749421E2     5.341182396035842E-1    5.723046333423071E1     5.313051848719960E-1    5.662820536046609E1     7.593928028711620E-1    1.509744839656248E2
 2.766250000000000E9     7.627091378638290E-1    1.420479894698011E2     5.343471472492570E-1    5.703871699574331E1     5.318785999368232E-1    5.644998065803191E1     7.593239367028143E-1    1.507966928231985E2
 2.767500000000000E9     7.624821142995065E-1    1.418615978907731E2     5.347364433130491E-1    5.685887976169473E1     5.320403612399000E-1    5.628947201722576E1     7.591089086551593E-1    1.506179385989284E2
 2.768750000000000E9     7.623778235450583E-1    1.416862728544112E2     5.349221505807155E-1    5.668455992878079E1     5.322256334585405E-1    5.612548967935121E1     7.588139390740134E-1    1.504499528968427E2
 2.770000000000000E9     7.623452843367743E-1    1.414933431729098E2     5.351776748454945E-1    5.652203824374358E1     5.325918145695275E-1    5.595144532490272E1     7.586361926094497E-1    1.502672059535521E2
 2.771250000000000E9     7.622525970589529E-1    1.413067765692976E2     5.354111293267890E-1    5.634949657634775E1     5.328817546167820E-1    5.578265556118951E1     7.587470205240475E-1    1.501117168277113E2
 2.772500000000000E9     7.620956455822263E-1    1.411260452100900E2     5.355717035619385E-1    5.617527926067211E1     5.331737632450899E-1    5.562447095085308E1     7.585031239841191E-1    1.499262326617471E2
 2.773750000000000E9     7.619473605176202E-1    1.409611123866236E2     5.357802012891468E-1    5.603176341206119E1     5.334340837767201E-1    5.544928285560554E1     7.582927388507869E-1    1.497573791894586E2
 2.775000000000000E9     7.617380193977263E-1    1.407661138577313E2     5.359889437960180E-1    5.584525504789983E1     5.337123476588710E-1    5.528466078247127E1     7.580418400842270E-1    1.495836806661226E2
 2.776250000000000E9     7.616546482067079E-1    1.405958337107736E2     5.361653733015551E-1    5.568123996012906E1     5.339439459749972E-1    5.510785024324901E1     7.581262013268767E-1    1.494144648023460E2
 2.777500000000000E9     7.613992754075417E-1    1.404009447365896E2     5.363799363113800E-1    5.551511603271856E1     5.340764997052105E-1    5.496136165078540E1     7.579461262465377E-1    1.492556343692380E2
 2.778750000000000E9     7.613517153246920E-1    1.402315133947534E2     5.366584018522138E-1    5.535522003642683E1     5.344688047679725E-1    5.478998286228890E1     7.576443289628829E-1    1.490765304372352E2
 2.780000000000000E9     7.610815803967349E-1    1.400362039060700E2     5.370054251059558E-1    5.519289773613541E1     5.348156818984710E-1    5.461957200133843E1     7.577172896608604E-1    1.488999873940104E2
 2.781250000000000E9     7.610112233395355E-1    1.398556314555112E2     5.371781574122465E-1    5.502628060813093E1     5.351626862658001E-1    5.446207213183898E1     7.576743759824129E-1    1.487561042605374E2
 2.782500000000000E9     7.606916454489522E-1    1.396785194726215E2     5.374260927823046E-1    5.486873492661674E1     5.352161708421909E-1    5.429313875221533E1     7.570910652395693E-1    1.485709528905504E2
 2.783750000000000E9     7.607020642729106E-1    1.394976243325195E2     5.375662705903207E-1    5.471302247719873E1     5.355731201490274E-1    5.412859328052162E1     7.570659005332441E-1    1.484105126236597E2
 2.785000000000000E9     7.604088747371645E-1    1.393184912410318E2     5.378963623345732E-1    5.455053740652357E1     5.357205376559614E-1    5.396366392031914E1     7.569469661589486E-1    1.482447761447516E2
 2.786250000000000E9     7.603439253526202E-1    1.391356936125215E2     5.381367484348966E-1    5.436925769606787E1     5.361006921931589E-1    5.377341283914280E1     7.568358460980009E-1    1.480770402718392E2
 2.787500000000000E9     7.601527272768784E-1    1.389690076344319E2     5.382849425568524E-1    5.419288621830545E1     5.361490515585343E-1    5.360713599958093E1     7.564953189512664E-1    1.479114775511167E2
 2.788750000000000E9     7.599135336766366E-1    1.387708933252652E2     5.384652950865387E-1    5.405197355974063E1     5.364361359356425E-1    5.345677829379333E1     7.563493925562655E-1    1.477322171515153E2
 2.790000000000000E9     7.598343797709782E-1    1.385841283276446E2     5.387679339716419E-1    5.387496111616316E1     5.367812222614258E-1    5.327079155250260E1     7.563264082172698E-1    1.475758236777238E2
 2.791250000000000E9     7.596217925542558E-1    1.384154438969187E2     5.390199303057072E-1    5.371984621775792E1     5.370546648636851E-1    5.309244458220724E1     7.562401447946907E-1    1.474038706661026E2
 2.792500000000000E9     7.595112973994778E-1    1.382210902425824E2     5.394622782152084E-1    5.354010743210031E1     5.373844895338432E-1    5.292350176015058E1     7.560989452798363E-1    1.472363145261451E2
 2.793750000000000E9     7.593444938022829E-1    1.380365286846010E2     5.394643692572273E-1    5.337659822401972E1     5.375909043478029E-1    5.276355729246050E1     7.558153131487806E-1    1.470714315604153E2
 2.795000000000000E9     7.592306972967928E-1    1.378484911736208E2     5.398089098250423E-1    5.321020416041153E1     5.378446219012630E-1    5.259465678330833E1     7.558716228755531E-1    1.468922543450599E2
 2.796250000000000E9     7.591965622761354E-1    1.376615667596653E2     5.399675154098097E-1    5.302498482737994E1     5.379719422596445E-1    5.240423841241284E1     7.556242264982752E-1    1.467259004399300E2
 2.797500000000000E9     7.589436688456694E-1    1.374723960208409E2     5.401982942529691E-1    5.286147532023725E1     5.384126637210589E-1    5.225723223250427E1     7.556280181969992E-1    1.465618539330321E2
 2.798750000000000E9     7.589074035859171E-1    1.373005610407633E2     5.406479112614359E-1    5.269651268097439E1     5.383549374325547E-1    5.209017750668402E1     7.555330850207264E-1    1.463902741128000E2
 2.800000000000000E9     7.588205389158723E-1    1.371191675290241E2     5.406307818868108E-1    5.252396165593621E1     5.387974384024139E-1    5.192134289661863E1     7.553840876867158E-1    1.462079942607904E2
 2.801250000000000E9     7.585057768090658E-1    1.369285407036748E2     5.409479919366684E-1    5.237681943153021E1     5.388259089619651E-1    5.175574298788001E1     7.551232899197476E-1    1.460601766514337E2
 2.802500000000000E9     7.583252525298008E-1    1.367495847906615E2     5.410651109027907E-1    5.220483046946634E1     5.393635369012109E-1    5.159465354325555E1     7.550667288155494E-1    1.458812034409803E2
 2.803750000000000E9     7.582701420359734E-1    1.365725035703105E2     5.415169115391445E-1    5.206257440659439E1     5.396576771592974E-1    5.139806706745118E1     7.550637591386238E-1    1.457078589146712E2
 2.805000000000000E9     7.579078812124188E-1    1.363797463878757E2     5.414547227582976E-1    5.187320477524341E1     5.400143563467550E-1    5.124102616616580E1     7.550142475300503E-1    1.455377827161888E2
 2.806250000000000E9     7.579755323471439E-1    1.362114721653562E2     5.420295380530535E-1    5.170476022237646E1     5.402946852664823E-1    5.106783904471735E1     7.549125515190496E-1    1.453723115180074E2
 2.807500000000000E9     7.579625683077210E-1    1.360358727461006E2     5.422911198174515E-1    5.154379441205569E1     5.403930148572179E-1    5.089033925311666E1     7.546021125990614E-1    1.452049742051949E2
 2.808750000000000E9     7.578120530789855E-1    1.358409291992517E2     5.425863550568435E-1    5.136084624512883E1     5.407621482957877E-1    5.073769277662628E1     7.545910377211716E-1    1.450360237556268E2
 2.810000000000000E9     7.576881122068132E-1    1.356747221943986E2     5.427876911976516E-1    5.122404108664089E1     5.409235898021642E-1    5.055820791502349E1     7.542534623817452E-1    1.448685771229583E2
 2.811250000000000E9     7.573174063602395E-1    1.354953254909985E2     5.428644699341680E-1    5.105114855007987E1     5.413860439396189E-1    5.037654332950454E1     7.545774345258153E-1    1.446953357517118E2
 2.812500000000000E9     7.571713228829865E-1    1.353233959287120E2     5.434600920631082E-1    5.090445355394003E1     5.414578748780056E-1    5.021575526962535E1     7.542651506577300E-1    1.445158479541736E2
 2.813750000000000E9     7.571805789621362E-1    1.351489394115341E2     5.436005549546093E-1    5.070478435589806E1     5.416921547820222E-1    5.005612987128523E1     7.541557982953451E-1    1.443630265426091E2
 2.815000000000000E9     7.571420368545040E-1    1.349803017966284E2     5.439562399034054E-1    5.056552411330654E1     5.420154336044471E-1    4.988321782317773E1     7.540860620560161E-1    1.441889905059041E2
 2.816250000000000E9     7.568846342143957E-1    1.347852980344747E2     5.442072853802153E-1    5.037080639461993E1     5.422112834095448E-1    4.971407543451642E1     7.539237504209690E-1    1.440082261353724E2
 2.817500000000000E9     7.567090225943344E-1    1.346107133808212E2     5.443982851370499E-1    5.023879460478814E1     5.425025341143943E-1    4.955422522042421E1     7.538697147024174E-1    1.438463576114238E2
 2.818750000000000E9     7.566429322668868E-1    1.344338186781555E2     5.448402614191387E-1    5.004672961637473E1     5.428297110472041E-1    4.938159241270745E1     7.537867309265578E-1    1.436696959833897E2
 2.820000000000000E9     7.563913752293678E-1    1.342517838913238E2     5.449551949122502E-1    4.990984251841794E1     5.427352005464942E-1    4.920997600168381E1     7.535745058907466E-1    1.434950569060525E2
 2.821250000000000E9     7.564383805875922E-1    1.340759620978574E2     5.452818757330987E-1    4.973214775582912E1     5.430411511356723E-1    4.903109663202758E1     7.535356467890771E-1    1.433375648302080E2
 2.822500000000000E9     7.559664779805206E-1    1.339087356157306E2     5.454139269126308E-1    4.956133099491893E1     5.433087427317217E-1    4.888159157452394E1     7.533600388761215E-1    1.431749034934136E2
 2.823750000000000E9     7.558867880031210E-1    1.337300297725993E2     5.459721061010776E-1    4.941671190775862E1     5.434093535144846E-1    4.871715855790509E1     7.533243187766933E-1    1.429948248253937E2
 2.825000000000000E9     7.557582747150197E-1    1.335612525052528E2     5.460312340582009E-1    4.924067960987815E1     5.437115417798062E-1    4.854151209492954E1     7.530261362181880E-1    1.428471487802325E2
 2.826250000000000E9     7.558146787534489E-1    1.333794334037788E2     5.465132707748444E-1    4.907420495923660E1     5.438138903714849E-1    4.839261432593808E1     7.529557547190974E-1    1.426762690757867E2
 2.827500000000000E9     7.554207435389111E-1    1.332081356897521E2     5.465892486468856E-1    4.891516309917819E1     5.440981858605591E-1    4.819297665425208E1     7.530737303914484E-1    1.425152856657543E2
 2.828750000000000E9     7.552767548436146E-1    1.330439423639465E2     5.468867601717060E-1    4.873339002404629E1     5.442736468426002E-1    4.803704152156219E1     7.526728112106090E-1    1.423520709362931E2
 2.830000000000000E9     7.550842805959977E-1    1.328578630745762E2     5.473005745239709E-1    4.857765750461087E1     5.443464392198289E-1    4.785608390462961E1     7.523808030967962E-1    1.421754067299448E2
 2.831250000000000E9     7.550236668183503E-1    1.326724258181173E2     5.475506678250334E-1    4.837773976465301E1     5.444976102172667E-1    4.769749021676486E1     7.523863330819630E-1    1.420224887684798E2
 2.832500000000000E9     7.549394943260692E-1    1.325051588172669E2     5.475525813373263E-1    4.823128471334508E1     5.446994619232256E-1    4.755476390067603E1     7.521840103833835E-1    1.418489654709929E2
 2.833750000000000E9     7.546642679020888E-1    1.323318614957793E2     5.478423623033802E-1    4.806230442643222E1     5.451079987940231E-1    4.735554112482057E1     7.521916405672153E-1    1.416832592583797E2
 2.835000000000000E9     7.547057670803208E-1    1.321630760013647E2     5.482120390501971E-1    4.789757487079179E1     5.451501490220547E-1    4.718458370489259E1     7.519372808810233E-1    1.415242021263905E2
 2.836250000000000E9     7.544692542689586E-1    1.319741419407759E2     5.484590677326024E-1    4.772891984662894E1     5.453029186641973E-1    4.701263847466168E1     7.518222404490456E-1    1.413700959003443E2
 2.837500000000000E9     7.541854286717625E-1    1.317915614991112E2     5.486020869271520E-1    4.756109737522429E1     5.452894845179067E-1    4.683501588454880E1     7.517162134856566E-1    1.411875143419115E2
 2.838750000000000E9     7.541711996477600E-1    1.316149178702362E2     5.488650638418686E-1    4.737702191837437E1     5.457167200779843E-1    4.666428733384188E1     7.517987301959015E-1    1.410289216687769E2
 2.840000000000000E9     7.539837888702775E-1    1.314403136781471E2     5.492029290639218E-1    4.720531705133693E1     5.457476932275386E-1    4.651665181984767E1     7.514275363622496E-1    1.408641876993372E2
 2.841250000000000E9     7.539423221040731E-1    1.312518092251574E2     5.492565799254190E-1    4.704217226273219E1     5.458520103160500E-1    4.634367960301496E1     7.512762060671782E-1    1.406950426165035E2
 2.842500000000000E9     7.537998965768897E-1    1.310736070217378E2     5.497453684814918E-1    4.685664923388264E1     5.460563501729535E-1    4.617851194595226E1     7.510821593528909E-1    1.405430186359395E2
 2.843750000000000E9     7.535275553937716E-1    1.308925324527182E2     5.497784736301911E-1    4.669843094220894E1     5.463020652845182E-1    4.598828409301567E1     7.510121961390567E-1    1.403487192788310E2
 2.845000000000000E9     7.536708511204391E-1    1.307317386150288E2     5.501373930282262E-1    4.649349135004461E1     5.465382315197687E-1    4.582688052078078E1     7.509037692796392E-1    1.401994977757226E2
 2.846250000000000E9     7.533731967396887E-1    1.305401580823808E2     5.502758832100931E-1    4.632491231930671E1     5.464638782373316E-1    4.566073515456161E1     7.505748341283509E-1    1.400281701620532E2
 2.847500000000000E9     7.534834642070638E-1    1.303600568768378E2     5.504436279399768E-1    4.616969028850777E1     5.468409756058464E-1    4.551631922662040E1     7.507600556761973E-1    1.398619402861259E2
 2.848750000000000E9     7.532504829927363E-1    1.301814961115012E2     5.506228776991540E-1    4.598489517504306E1     5.469882761243525E-1    4.531197795247322E1     7.504983570112199E-1    1.397129119241332E2
 2.850000000000000E9     7.531116524160146E-1    1.300118840108971E2     5.508758782846735E-1    4.579852225441441E1     5.471433310592211E-1    4.516361802771306E1     7.503165294140212E-1    1.395264136537204E2
 2.851250000000000E9     7.532609177587113E-1    1.298477548133318E2     5.509551114342922E-1    4.564517136956076E1     5.470643728284713E-1    4.497213075821001E1     7.500952735425084E-1    1.393625388083196E2
 2.852500000000000E9     7.529470302878837E-1    1.296512774465657E2     5.512818818883984E-1    4.547735766371775E1     5.473790319190286E-1    4.481550181457197E1     7.502395133520088E-1    1.391971032372581E2
 2.853750000000000E9     7.530012034144318E-1    1.294915599656518E2     5.512428525233022E-1    4.529546118689744E1     5.475157885596900E-1    4.467120638313887E1     7.501140316628520E-1    1.390305457737622E2
 2.855000000000000E9     7.527644775094219E-1    1.293258504553630E2     5.514402569240466E-1    4.512559859382999E1     5.478864644592737E-1    4.449281639551856E1     7.499302724506045E-1    1.388650901876841E2
 2.856250000000000E9     7.528590636813087E-1    1.291494330849792E2     5.516948884771931E-1    4.495371653259436E1     5.477324961823565E-1    4.432633185665506E1     7.496366267441485E-1    1.387086253593559E2
 2.857500000000000E9     7.525871752606451E-1    1.289855147906932E2     5.517646675578844E-1    4.478056998047789E1     5.479426447816069E-1    4.418034310346214E1     7.495665086604824E-1    1.385291880451178E2
 2.858750000000000E9     7.526273635985954E-1    1.288250422707841E2     5.520938835863345E-1    4.458645221543571E1     5.480833391707254E-1    4.400644934442066E1     7.494812471256486E-1    1.383548397760049E2
 2.860000000000000E9     7.523566247981213E-1    1.286418361986642E2     5.521588113477679E-1    4.443312999360015E1     5.482925402068843E-1    4.383869268870885E1     7.493654853245229E-1    1.381973214898734E2
 2.861250000000000E9     7.523214015897650E-1    1.284741091007533E2     5.522842264948484E-1    4.427224572472171E1     5.484833157072501E-1    4.369226467297170E1     7.492490393683190E-1    1.380304394199681E2
 2.862500000000000E9     7.522786620614508E-1    1.282992913653785E2     5.526077074609049E-1    4.408627639176972E1     5.486151587475787E-1    4.352065270595196E1     7.491904042297785E-1    1.378630567318831E2
 2.863750000000000E9     7.521523347952358E-1    1.281383986105963E2     5.526221974037191E-1    4.394946106982025E1     5.486566117727791E-1    4.335719506810140E1     7.490938159747250E-1    1.377030651014258E2
 2.865000000000000E9     7.520828573263366E-1    1.279684376903669E2     5.529522922747248E-1    4.377317115497252E1     5.487087022624598E-1    4.320012730892677E1     7.488923769910765E-1    1.375382323624021E2
 2.866250000000000E9     7.521795339735493E-1    1.277969294707655E2     5.531102158078264E-1    4.361834172989943E1     5.488580710705858E-1    4.303673181860687E1     7.487692518641099E-1    1.373965001449249E2
 2.867500000000000E9     7.517653800780167E-1    1.276278826577513E2     5.530393165328337E-1    4.344849689278993E1     5.490704120266982E-1    4.287008154107019E1     7.489339668186455E-1    1.372273825102901E2
 2.868750000000000E9     7.517009328189255E-1    1.274625095787609E2     5.532255674207743E-1    4.328347646368389E1     5.492795487417498E-1    4.272059108043946E1     7.487143657125359E-1    1.370538787940935E2
 2.870000000000000E9     7.518168449862823E-1    1.272755367526340E2     5.532974518791394E-1    4.310905870486306E1     5.493830131478069E-1    4.255046203721461E1     7.485110535994851E-1    1.368945101432329E2
 2.871250000000000E9     7.513543757553748E-1    1.271165987750515E2     5.534374420733194E-1    4.295390074061044E1     5.495144202335659E-1    4.239238642101665E1     7.485420755105755E-1    1.367411987334623E2
 2.872500000000000E9     7.513998986202657E-1    1.269506368416662E2     5.535736387589896E-1    4.279736617797325E1     5.496580084169802E-1    4.223782976882620E1     7.483628316117732E-1    1.365707970250947E2
 2.873750000000000E9     7.515869565065274E-1    1.267793795533211E2     5.536270592514952E-1    4.263213120315378E1     5.498960660783734E-1    4.204721397383910E1     7.483139752037037E-1    1.364207398967328E2
 2.875000000000000E9     7.512283884032451E-1    1.265964548189037E2     5.539801413012017E-1    4.246767280901806E1     5.500151040014731E-1    4.190228551255400E1     7.482319537581026E-1    1.362626138587137E2
 2.876250000000000E9     7.510568459180488E-1    1.264157184977952E2     5.539376589311181E-1    4.230705801891730E1     5.501735904044470E-1    4.174801109118319E1     7.480622245323103E-1    1.360980522364334E2
 2.877500000000000E9     7.512101422980603E-1    1.262373834927728E2     5.539655185691168E-1    4.213642213089184E1     5.501466783114974E-1    4.157559706987121E1     7.479762155759591E-1    1.359333886983968E2
 2.878750000000000E9     7.509477315590360E-1    1.260726384728165E2     5.541015731341512E-1    4.197916909638381E1     5.502605980996439E-1    4.140929433610189E1     7.480218231724545E-1    1.357748533560573E2
 2.880000000000000E9     7.508665894782219E-1    1.258936304954084E2     5.543610447298452E-1    4.181262748878330E1     5.502950943699910E-1    4.126691895849626E1     7.477211101012823E-1    1.356294727552195E2
 2.881250000000000E9     7.507053859116659E-1    1.257136071849424E2     5.544443419051284E-1    4.167108153135706E1     5.505539730136344E-1    4.108376922350262E1     7.476802187007331E-1    1.354644865445858E2
 2.882500000000000E9     7.505717435452467E-1    1.255432938562078E2     5.545765651927536E-1    4.148501869713161E1     5.506537493477672E-1    4.091769491364659E1     7.475952639330421E-1    1.352989858886419E2
 2.883750000000000E9     7.504323394311062E-1    1.253801212334950E2     5.546703321198901E-1    4.132186536182975E1     5.507524945511557E-1    4.077715092391252E1     7.475793930361651E-1    1.351439018330844E2
 2.885000000000000E9     7.504744315731310E-1    1.251845673069487E2     5.544830292303048E-1    4.114919063846641E1     5.509106232727611E-1    4.060235399494581E1     7.472794450183807E-1    1.349787239716388E2
 2.886250000000000E9     7.504887440937976E-1    1.250101462590866E2     5.547006725659527E-1    4.098417950879860E1     5.510521483408298E-1    4.043556526453495E1     7.471989274889593E-1    1.348177506214284E2
 2.887500000000000E9     7.503351891947345E-1    1.248425158907753E2     5.548651432427456E-1    4.081752551098096E1     5.511620484755285E-1    4.027809147900896E1     7.471660145831911E-1    1.346551283350167E2
 2.888750000000000E9     7.500154016391031E-1    1.246634077167432E2     5.548389893017516E-1    4.067712495819044E1     5.513100877924688E-1    4.013294809232965E1     7.470112734806627E-1    1.344944316300547E2
 2.890000000000000E9     7.501382544078546E-1    1.244813373102298E2     5.550836925317566E-1    4.050382704911442E1     5.514005448773281E-1    3.993686202048309E1     7.469987820758281E-1    1.343349013413688E2
 2.891250000000000E9     7.500938597608486E-1    1.243047965963773E2     5.552154900275986E-1    4.032079637072780E1     5.518767591690837E-1    3.978445029891419E1     7.469466187141863E-1    1.341723720663257E2
 2.892500000000000E9     7.497910500387041E-1    1.241287032065604E2     5.553139023739246E-1    4.014357810195377E1     5.516303592685801E-1    3.963532018942178E1     7.470574502169631E-1    1.340022302377025E2
 2.893750000000000E9     7.499310132122181E-1    1.239667019211400E2     5.556025680245984E-1    3.998074828007569E1     5.520893703222214E-1    3.944772849937516E1     7.470994712378979E-1    1.338400951649352E2
 2.895000000000000E9     7.498005780521073E-1    1.238045474878273E2     5.556803257133711E-1    3.982295884950104E1     5.521682741454423E-1    3.932286467373931E1     7.466434606684631E-1    1.336866507222230E2
 2.896250000000000E9     7.497316511497362E-1    1.236275648255423E2     5.557057270799713E-1    3.967694277662441E1     5.522678728566790E-1    3.914102690627342E1     7.467103583872250E-1    1.335158873559583E2
 2.897500000000000E9     7.498468937896502E-1    1.234426812799429E2     5.557843941625423E-1    3.951202501654780E1     5.524868510311934E-1    3.897337372997459E1     7.465304333902586E-1    1.333501680267524E2
 2.898750000000000E9     7.496864749493000E-1    1.232762776662816E2     5.557881117299804E-1    3.934257290324265E1     5.524983565756882E-1    3.882425664495509E1     7.466363759868092E-1    1.331971572442054E2
 2.900000000000000E9     7.494947869041564E-1    1.231094239159923E2     5.559246364652237E-1    3.917652141056905E1     5.527626165614322E-1    3.868726240584230E1     7.464858580572851E-1    1.330314583352462E2
 2.901250000000000E9     7.495119224223189E-1    1.229508341328879E2     5.561217974062895E-1    3.902343321738620E1     5.529793543650942E-1    3.852112418956887E1     7.465218728271952E-1    1.328575631255294E2
 2.902500000000000E9     7.493606375623817E-1    1.227695684005887E2     5.562076597165332E-1    3.888358959573545E1     5.530910855655492E-1    3.834249542585957E1     7.464379372244387E-1    1.326978332011857E2
 2.903750000000000E9     7.494998556974986E-1    1.226054626808490E2     5.561848836251386E-1    3.871183894307314E1     5.533032555014435E-1    3.819868330398508E1     7.462022384327496E-1    1.325314981687216E2
 2.905000000000000E9     7.491492875140141E-1    1.224459580682267E2     5.564442953169427E-1    3.855874699007258E1     5.534411559060390E-1    3.804147915641685E1     7.462928745688717E-1    1.323687648082873E2
 2.906250000000000E9     7.491820884734858E-1    1.222872327376053E2     5.567063007851493E-1    3.839141098464845E1     5.537076806240482E-1    3.787635442854513E1     7.463504833483758E-1    1.322156764198891E2
 2.907500000000000E9     7.489483507647325E-1    1.221117021114284E2     5.568299320221752E-1    3.823886650250665E1     5.537703351364870E-1    3.772585636980733E1     7.461385854298054E-1    1.320614853344617E2
 2.908750000000000E9     7.490208640461288E-1    1.219425947577711E2     5.570000190161094E-1    3.808098096253428E1     5.538401440558258E-1    3.755823213413893E1     7.460581568557184E-1    1.318924910642784E2
 2.910000000000000E9     7.488133588489279E-1    1.217823430042896E2     5.570381931842957E-1    3.793533331901506E1     5.541023298510470E-1    3.740448444343055E1     7.461457542580645E-1    1.317461661625715E2
 2.911250000000000E9     7.489006909710778E-1    1.216202519847698E2     5.572213053053823E-1    3.777315177596022E1     5.542204564772577E-1    3.723179770052853E1     7.460717945261356E-1    1.315724707388364E2
 2.912500000000000E9     7.485773098610443E-1    1.214283496630207E2     5.573751496398569E-1    3.762693661148386E1     5.541834950518192E-1    3.706981942592537E1     7.460748341125532E-1    1.314164679144817E2
 2.913750000000000E9     7.484539584541482E-1    1.212713668718768E2     5.576083558971325E-1    3.747292755520152E1     5.545110363096225E-1    3.691544422898321E1     7.459459760228462E-1    1.312518530990496E2
 2.915000000000000E9     7.484943357809799E-1    1.211038834668247E2     5.578518101580436E-1    3.730984672982898E1     5.544639206738627E-1    3.675299923835524E1     7.459335773345173E-1    1.310854036874167E2
 2.916250000000000E9     7.484404852978070E-1    1.209401803474907E2     5.578888638238051E-1    3.715176785468172E1     5.547147080308564E-1    3.657093020885179E1     7.460246491357461E-1    1.309432275110250E2
 2.917500000000000E9     7.483077633497907E-1    1.207576300876860E2     5.579758429747600E-1    3.702821202944178E1     5.548298680653141E-1    3.642151349153219E1     7.457980750479769E-1    1.307889854812289E2
 2.918750000000000E9     7.481305734848548E-1    1.205952891822461E2     5.581736706242346E-1    3.687511721319315E1     5.551187256314687E-1    3.625412050127421E1     7.456664968905893E-1    1.306339934161902E2
 2.920000000000000E9     7.480663979338833E-1    1.204377025557144E2     5.583373224743973E-1    3.670469274236249E1     5.551345470348069E-1    3.608771023708575E1     7.456823389424031E-1    1.304723410714925E2
 2.921250000000000E9     7.477425446153969E-1    1.202516949347940E2     5.583545411286631E-1    3.654276359148818E1     5.551237789547826E-1    3.593496654785464E1     7.455515845112193E-1    1.303007376867056E2
 2.922500000000000E9     7.478670012284407E-1    1.200826712845829E2     5.585496017164342E-1    3.639576178175442E1     5.553619278503160E-1    3.578067282045220E1     7.455522461244992E-1    1.301576920337275E2
 2.923750000000000E9     7.476665426788228E-1    1.198966176275739E2     5.587892318126128E-1    3.622887064376262E1     5.554982627880245E-1    3.559713663354368E1     7.453713873863742E-1    1.299897760973334E2
 2.925000000000000E9     7.475915916326570E-1    1.197274563150156E2     5.588728156105959E-1    3.608137606701175E1     5.556312880184291E-1    3.542382302402634E1     7.454348853165147E-1    1.298410945187804E2
 2.926250000000000E9     7.474637987468821E-1    1.195634813951094E2     5.590390248922279E-1    3.590524802568397E1     5.557972893664048E-1    3.527449379914598E1     7.454020263829426E-1    1.296730023713694E2
 2.927500000000000E9     7.474931558460813E-1    1.194048917506603E2     5.592434274556886E-1    3.576043463983284E1     5.559194294360215E-1    3.507521663782256E1     7.452278607325484E-1    1.295018095654351E2
 2.928750000000000E9     7.473069630560535E-1    1.192256177946137E2     5.592793511906732E-1    3.560019994604593E1     5.559835814684557E-1    3.492311422341267E1     7.450539486543875E-1    1.293626216584537E2
 2.930000000000000E9     7.473493625711305E-1    1.190467983144913E2     5.596039277012904E-1    3.544640761601887E1     5.560486052189926E-1    3.475579640350649E1     7.450812598450929E-1    1.291970973079073E2
 2.931250000000000E9     7.471810480266720E-1    1.188766969970462E2     5.595053357786022E-1    3.527371634478352E1     5.562971554083266E-1    3.460541491357584E1     7.450789880375696E-1    1.290420966521618E2
 2.932500000000000E9     7.469981062714002E-1    1.187037469772737E2     5.599196387600206E-1    3.512368524708322E1     5.562795724799672E-1    3.445515922420849E1     7.448830986108608E-1    1.288763841346749E2
 2.933750000000000E9     7.469501916516363E-1    1.185379656159434E2     5.600020945246345E-1    3.495098406785314E1     5.564891287282022E-1    3.428412656100679E1     7.449278030109519E-1    1.287237881435726E2
 2.935000000000000E9     7.468542614702848E-1    1.183607489836011E2     5.602595823601977E-1    3.477435982448318E1     5.565220323262003E-1    3.411250460303740E1     7.449565914815447E-1    1.285473459634764E2
 2.936250000000000E9     7.469293094802604E-1    1.182077391557029E2     5.601854611455669E-1    3.459991728735613E1     5.568053905253646E-1    3.395572762613295E1     7.447553943789487E-1    1.284031327639457E2
 2.937500000000000E9     7.466461991643788E-1    1.180361036368939E2     5.604234933154133E-1    3.442642948249122E1     5.569070205300136E-1    3.378940461092053E1     7.446454397665263E-1    1.282411495846359E2
 2.938750000000000E9     7.465821131215443E-1    1.178682003155071E2     5.605452943506467E-1    3.427239934777578E1     5.567982280172270E-1    3.362180814017300E1     7.445677395120920E-1    1.280612752031432E2
 2.940000000000000E9     7.464836042691435E-1    1.176993362488326E2     5.606711894997232E-1    3.411173442102717E1     5.570874716285465E-1    3.347436897732284E1     7.446388137817189E-1    1.279045623042388E2
 2.941250000000000E9     7.464098553393512E-1    1.175285129045333E2     5.609127047348375E-1    3.394234080310257E1     5.571545360752496E-1    3.330226501955759E1     7.444540109300715E-1    1.277375151537176E2
 2.942500000000000E9     7.464548130944476E-1    1.173723999002622E2     5.612853057661340E-1    3.378026394415979E1     5.574399775537262E-1    3.313236110552617E1     7.444428163137679E-1    1.275795766945209E2
 2.943750000000000E9     7.463393541518291E-1    1.172022739211231E2     5.612017621696451E-1    3.359493562566818E1     5.572917397071139E-1    3.297260470650475E1     7.443086596736407E-1    1.274183205961520E2
 2.945000000000000E9     7.462246838223603E-1    1.170355070245846E2     5.616074022156023E-1    3.343135111604501E1     5.573074030600956E-1    3.282360171568885E1     7.443221167556957E-1    1.272547581739295E2
 2.946250000000000E9     7.461860789288791E-1    1.168738560312377E2     5.615749794052560E-1    3.328000699865668E1     5.574832915243219E-1    3.264408264456688E1     7.441700563425714E-1    1.271085787143970E2
 2.947500000000000E9     7.459526983504027E-1    1.167192849860982E2     5.618207249917890E-1    3.312388204244080E1     5.574351333060603E-1    3.249447607144064E1     7.439976728954488E-1    1.269351407734733E2
 2.948750000000000E9     7.461900343357947E-1    1.165621552267836E2     5.619695931035679E-1    3.294000082615557E1     5.576761382071697E-1    3.233724936688861E1     7.440287782984805E-1    1.267700439410277E2
 2.950000000000000E9     7.460458472451142E-1    1.163859022689372E2     5.623413174743040E-1    3.278907461542974E1     5.577155095855251E-1    3.217883257456560E1     7.439458566774005E-1    1.266134740259300E2
 2.951250000000000E9     7.457669051298004E-1    1.162300095880039E2     5.624992855139123E-1    3.262545116474507E1     5.578528690645246E-1    3.201113297743227E1     7.438791116698545E-1    1.264623018719818E2
 2.952500000000000E9     7.457917828901257E-1    1.160699740291215E2     5.625526006901772E-1    3.244454564138160E1     5.578301562283501E-1    3.185177530265790E1     7.437641207198663E-1    1.262924101032151E2
 2.953750000000000E9     7.457434493518086E-1    1.159186885112792E2     5.628569523957009E-1    3.229643858737312E1     5.579629685231758E-1    3.169336856082916E1     7.436956365974252E-1    1.261438174385328E2
 2.955000000000000E9     7.456590945899071E-1    1.157456216392066E2     5.626898789443012E-1    3.213822365147247E1     5.580005525301012E-1    3.155121244398213E1     7.437544512660096E-1    1.259842335661225E2
 2.956250000000000E9     7.459234360264351E-1    1.155962863686789E2     5.629169328157598E-1    3.196583992071953E1     5.581733457504723E-1    3.137710313663051E1     7.436035220252584E-1    1.258267776722529E2
 2.957500000000000E9     7.456572184122052E-1    1.154185752614222E2     5.629985162120217E-1    3.184480278652330E1     5.580507415805873E-1    3.124350328690236E1     7.434284449981213E-1    1.256667478511677E2
 2.958750000000000E9     7.454078052121580E-1    1.152600439458410E2     5.631837406461501E-1    3.164940115395327E1     5.583166949169611E-1    3.106014133820885E1     7.434719175277545E-1    1.255081343336761E2
 2.960000000000000E9     7.454366926085628E-1    1.150948565885858E2     5.634303981122107E-1    3.148991269009967E1     5.583432874073306E-1    3.091714367377142E1     7.434173377197886E-1    1.253532444288487E2
 2.961250000000000E9     7.453833973520678E-1    1.149321623344263E2     5.636259552535775E-1    3.134534779616352E1     5.584109289019137E-1    3.074213281500734E1     7.432629814059154E-1    1.251825592115518E2
 2.962500000000000E9     7.452827861683842E-1    1.147831158330584E2     5.637093005275521E-1    3.120045681615620E1     5.583922573638197E-1    3.059664631955127E1     7.433436159601126E-1    1.250556722235578E2
 2.963750000000000E9     7.451573139676354E-1    1.146259901406803E2     5.636988923408093E-1    3.102495061379161E1     5.585762813368542E-1    3.041605970175699E1     7.434425753203411E-1    1.248914350760211E2
 2.965000000000000E9     7.451727534960000E-1    1.144588502819078E2     5.640516596259704E-1    3.087448311412250E1     5.585297430322103E-1    3.027858967264082E1     7.430735034125100E-1    1.247193922756923E2
 2.966250000000000E9     7.450089706974410E-1    1.142767387776771E2     5.637434802743631E-1    3.070282109154562E1     5.585370948479929E-1    3.010233520081114E1     7.431463318253663E-1    1.245752557749621E2
 2.967500000000000E9     7.449494551679349E-1    1.141016118458004E2     5.640212552776993E-1    3.053883132398046E1     5.588087212797629E-1    2.994775151321724E1     7.433138972875245E-1    1.244316512663869E2
 2.968750000000000E9     7.450085664054810E-1    1.139433044326500E2     5.639235262263449E-1    3.039982424681017E1     5.585216684490198E-1    2.979774577259533E1     7.427467233095203E-1    1.242907816264612E2
 2.970000000000000E9     7.449798370175512E-1    1.137654269677603E2     5.641815819715829E-1    3.021216467550727E1     5.588771731209045E-1    2.963971625028470E1     7.430559911304710E-1    1.241224424293582E2
 2.971250000000000E9     7.448423698597618E-1    1.136101382524207E2     5.641302497484449E-1    3.004399936468148E1     5.587965432377584E-1    2.948302625248235E1     7.430671809064506E-1    1.239760928511864E2
 2.972500000000000E9     7.446240105947576E-1    1.134381389160440E2     5.645262671583677E-1    2.988175099826238E1     5.588537642750194E-1    2.930787800073898E1     7.427629331826296E-1    1.238193981672479E2
 2.973750000000000E9     7.446618519261179E-1    1.132739709629575E2     5.645671075995871E-1    2.970920655953143E1     5.588889106305391E-1    2.914137149359573E1     7.429046913886476E-1    1.236556779542562E2
 2.975000000000000E9     7.446703454350339E-1    1.131031227368642E2     5.645520844324200E-1    2.953810885848938E1     5.587768845755504E-1    2.900513127867422E1     7.427201307294470E-1    1.235140995053015E2
 2.976250000000000E9     7.444617187974465E-1    1.129444093518972E2     5.644876681463271E-1    2.939331078352948E1     5.589513319818010E-1    2.884091278191857E1     7.425032852318223E-1    1.233497440365870E2
 2.977500000000000E9     7.443891860071391E-1    1.127718084740735E2     5.646957689450826E-1    2.921807510015975E1     5.590777740840744E-1    2.869445069508912E1     7.424661582306075E-1    1.232005681528959E2
 2.978750000000000E9     7.444480372374723E-1    1.126210659481074E2     5.648593055871740E-1    2.904484838857280E1     5.590451565915290E-1    2.853111681061072E1     7.423891208749384E-1    1.230457780631752E2
 2.980000000000000E9     7.444829863435526E-1    1.124639350736725E2     5.648726564980726E-1    2.886606799650123E1     5.591622906858758E-1    2.836056625750780E1     7.423310612557384E-1    1.228812798667368E2
 2.981250000000000E9     7.444339774218621E-1    1.122899451679236E2     5.649559665764919E-1    2.871102548854027E1     5.593019188050148E-1    2.821768596180365E1     7.422895471368957E-1    1.227292949386272E2
 2.982500000000000E9     7.443569391101046E-1    1.121314211190306E2     5.650265760153528E-1    2.852617242768275E1     5.593885902469006E-1    2.806764197384697E1     7.422924032615024E-1    1.225674942178588E2
 2.983750000000000E9     7.442569512213355E-1    1.119490445102192E2     5.650668082032742E-1    2.837200443070274E1     5.594583016235706E-1    2.790262150847867E1     7.420517958440338E-1    1.224063533941134E2
 2.985000000000000E9     7.442079184904347E-1    1.117947191144030E2     5.651147626409058E-1    2.820664414309070E1     5.593724676520816E-1    2.773800391154559E1     7.418657533578094E-1    1.222364465447932E2
 2.986250000000000E9     7.439574923607588E-1    1.116357867250653E2     5.654178964240919E-1    2.802717894356713E1     5.595498532030870E-1    2.758071164512818E1     7.421542777313205E-1    1.220797019510582E2
 2.987500000000000E9     7.442417075814254E-1    1.114708668099010E2     5.652911924326497E-1    2.786752730208675E1     5.595829965815587E-1    2.742984313868103E1     7.419613036626737E-1    1.219184525683920E2
 2.988750000000000E9     7.441647703037243E-1    1.113043018506243E2     5.652970265125824E-1    2.770947894239938E1     5.597001306696170E-1    2.726308164338734E1     7.418065914813364E-1    1.217447313468339E2
 2.990000000000000E9     7.441103619324692E-1    1.111382953818989E2     5.651884612173984E-1    2.755197641827294E1     5.598895642625266E-1    2.710856718843068E1     7.418905593304075E-1    1.215882085937320E2
 2.991250000000000E9     7.440058297320753E-1    1.109715243791130E2     5.652906843168808E-1    2.738562814718270E1     5.597383890171137E-1    2.696915986597393E1     7.419144515396753E-1    1.214321972189305E2
 2.992500000000000E9     7.440318123006829E-1    1.108244928955131E2     5.656778689281279E-1    2.722326589058108E1     5.600111076499710E-1    2.681225186104487E1     7.417378178832458E-1    1.212904001465391E2
 2.993750000000000E9     7.440701547273977E-1    1.106523313765029E2     5.657979721044051E-1    2.708147464798718E1     5.597457049046298E-1    2.664587051839082E1     7.416715968512904E-1    1.211173450522393E2
 2.995000000000000E9     7.439044222510837E-1    1.104910091577375E2     5.658245883205054E-1    2.689532263529458E1     5.600805593414849E-1    2.650554058617074E1     7.416532755197428E-1    1.209455243083039E2
 2.996250000000000E9     7.442080085176189E-1    1.103373112208760E2     5.657804534886217E-1    2.674005488795778E1     5.599718797981043E-1    2.634198958412136E1     7.417702288411016E-1    1.208053174637683E2
 2.997500000000000E9     7.438341083097730E-1    1.101818053513022E2     5.659758498413643E-1    2.658496199229019E1     5.601755882874139E-1    2.618428056026362E1     7.416991424784973E-1    1.206532654966942E2
 2.998750000000000E9     7.440110125386378E-1    1.100167135123390E2     5.658725500027522E-1    2.645012382022638E1     5.601319078156540E-1    2.603627229863380E1     7.417587401141458E-1    1.205059135749784E2
 3.000000000000000E9     7.438434616053137E-1    1.098615997201303E2     5.662778892585281E-1    2.630732059891305E1     5.601290393175498E-1    2.589305383788331E1     7.416701012163420E-1    1.203345877869148E2
